d,ep,stress_yy,total_strain_yy
0,0,0,0
0,0,6.8797190688834,0.00010000499999996
0,0,13.758876406685,0.00020001999999997
0,0,20.637472210044,0.00030004499999992
0,0,27.515506675558,0.00040007999999991
0,0,34.392979999647,0.00050012499999996
0,0,41.269892378663,0.00060017999999995
0,0,48.146244008907,0.00070024499999988
0,0,55.022035086568,0.00080031999999997
0,0,61.897265807699,0.00090040499999988
0,0,68.771936368286,0.0010004999999998
0,0,75.646046964208,0.0011006050000001
0,0,82.519597791284,0.00120072
0,0,89.392589045164,0.0013008450000001
0,0,96.265020921448,0.0014009800000001
0,0,103.13689361571,0.0015011250000001
0,0,110.00820732331,0.00160128
0,0,116.87896223956,0.001701445
0,0,123.74915855968,0.0018016200000001
0,0,130.61879647882,0.001901805
0,0,137.48787619199,0.0020019999999999
0,0,144.35639789413,0.002102205
0,0,151.22436178007,0.0022024199999999
0,0,158.09176804461,0.002302645
0,0,164.9586168823,0.00240288
0,0,171.82490848776,0.0025031249999999
0,0,178.69064305547,0.0026033799999999
0,0,185.55582077975,0.002703645
0,0,192.42044185489,0.00280392
0,0,199.28450647504,0.0029042049999999
0,0,206.14801483432,0.0030044999999999
0,0,213.01096712673,0.0031048050000001
0,0,219.8733635461,0.0032051200000001
0,0,226.7352042863,0.0033054450000001
0,0,233.59648954101,0.00340578
0,0,240.45721950385,0.003506125
0,0,247.3173943683,0.0036064800000001
0,0,254.17701432781,0.0037068450000001
0,0,261.03607957571,0.00380722
0,0,267.89459030523,0.003907605
0,0,274.75254670952,0.004008
0,0,281.60994898159,0.004108405
0,0,288.46679731447,0.00420882
0,0,295.32309190096,0.004309245
0,0,302.17883293384,0.00440968
0,0,309.03402060575,0.0045101249999999
0,0,315.88865510935,0.0046105799999999
0,3.1362790300889e-05,319.51666031667,0.004711045
0,9.7549931077492e-05,319.56205353714,0.00481152
0,0.00016373052342964,319.60744224617,0.0049120049999999
0,0.00022990456865699,319.65282644462,0.0050124999999999
0,0.00029607206805886,319.69820613339,0.0051130050000001
0,0.00036223302293344,319.74358131341,0.0052135200000001
0,0.0004283874345793,319.78895198557,0.0053140450000001
0,0.0004945353042943,319.83431815073,0.0054145800000001
0,0.00056067663337608,319.8796798098,0.0055151250000001
0,0.00062681142312189,319.92503696369,0.00561568
0,0.00069293967482823,319.97038961329,0.005716245
0,0.00075906138979166,320.01573775949,0.0058168200000001
0,0.00082517656930806,320.0610814032,0.005917405
0,0.00089128521467318,320.10642054529,0.006018
0,0.00095738732718205,320.15175518668,0.0061186049999999
0,0.0010234829081297,320.19708532824,0.00621922
0,0.0010895719588104,320.24241097089,0.0063198449999999
0,0.0011556544805185,320.28773211551,0.0064204799999999
0,0.0012217304745473,320.33304876299,0.0065211249999999
0,0.0012877999421905,320.37836091422,0.0066217799999999
0,0.0013538628847407,320.42366857009,0.006722445
0,0.0014199193034906,320.46897173151,0.00682312
0,0.0014859691997321,320.51427039937,0.0069238049999999
0,0.0015520125747572,320.55956457454,0.0070244999999999
0,0.0016180494298573,320.60485425795,0.0071252049999999
0,0.0016840797663234,320.65013945046,0.0072259200000001
0,0.0017501035854459,320.69542015295,0.0073266450000001
0,0.0018161208885151,320.74069636634,0.0074273800000001
0,0.001882131676821,320.78596809151,0.0075281250000001
0,0.001948135951653,320.83123532935,0.0076288800000001
0,0.0020141337142998,320.87649808076,0.0077296450000001
0,0.0020801249660506,320.92175634661,0.00783042
0,0.0021461097081934,320.96701012781,0.007931205
0,0.0022120879420163,321.01225942525,0.008032
0,0.0022780596688069,321.05750423979,0.008132805
0,0.0023440248898522,321.10274457233,0.0082336199999999
0,0.0024099836064389,321.14798042379,0.008334445
0,0.0024759358198536,321.19321179503,0.0084352799999999
0,0.0025418815313822,321.23843868692,0.008536125
0,0.0026078207423103,321.28366110039,0.0086369799999999
0,0.0026737534539233,321.3288790363,0.008737845
0,0.002739679667506,321.37409249554,0.00883872
0,0.0028055993843428,321.41930147903,0.0089396049999999
0,0.0028715126057179,321.46450598759,0.0090404999999999
0,0.0029374193329151,321.50970602216,0.0091414049999999
0,0.0030033195672174,321.55490158363,0.0092423199999999
0,0.0030692133099083,321.60009267286,0.0093432450000001
0,0.0031351005622699,321.64527929071,0.00944418
0,0.0032009813255847,321.69046143813,0.009545125
0,0.0032668556011343,321.73563911595,0.00964608
0,0.0033327233902003,321.78081232509,0.009747045
0,0.0033985846940637,321.82598106642,0.0098480200000001
0,0.0034644395140052,321.87114534082,0.0099490050000001
0,0.0035302878513052,321.91630514919,0.01005
0,0.0035961297072435,321.96146049241,0.010151005
0,0.0036619650830998,322.00661137133,0.01025202
0,0.0037277939801529,322.05175778689,0.010353045
0,0.003793616399682,322.09689973993,0.01045408
0,0.0038594323429652,322.14203723135,0.010555125
0,0.0039252418112807,322.18717026202,0.01065618
0,0.0039910448059061,322.23229883287,0.010757245
0,0.0040568413281187,322.27742294468,0.01085832
0,0.0041226313791955,322.32254259843,0.010959405
0,0.0041884149604127,322.36765779497,0.0110605
0,0.0042541920730466,322.41276853518,0.011161605
0,0.004319962718373,322.45787481992,0.01126272
0,0.0043857268976673,322.50297665009,0.011363845
0,0.0044514846122046,322.54807402657,0.01146498
0,0.0045172358632593,322.59316695026,0.011566125
0,0.0045829806521057,322.63825542201,0.01166728
0,0.0046487189800177,322.6833394427,0.011768445
0,0.0047144508482687,322.72841901321,0.01186962
0,0.0047801762581321,322.77349413445,0.011970805
0,0.0048458952108804,322.81856480727,0.012072
0,0.0049116077077859,322.86363103255,0.012173205
0,0.0049773137501208,322.90869281117,0.01227442
0,0.0050430133391568,322.95375014399,0.012375645
0,0.0051087064761648,322.99880303194,0.01247688
0,0.0051743931624159,323.04385147587,0.012578125
0,0.0052400733991804,323.08889547662,0.01267938
0,0.0053057471877285,323.13393503511,0.012780645
0,0.0053714145293301,323.17897015223,0.01288192
0,0.0054370754252544,323.22400082879,0.012983205
0,0.0055027298767704,323.26902706575,0.0130845
0,0.0055683778851464,323.31404886395,0.013185805
0,0.0056340194516511,323.35906622422,0.01328712
0,0.0056996545775522,323.40407914749,0.013388445
0,0.0057652832641171,323.44908763465,0.01348978
0,0.0058309055126132,323.49409168651,0.013591125
0,0.0058965213243069,323.53909130401,0.01369248
0,0.0059621307004644,323.58408648799,0.013793845
0,0.0060277336423521,323.62907723931,0.01389522
0,0.0060933301512353,323.67406355888,0.013996605
0,0.0061589202283795,323.71904544757,0.014098
0,0.0062245038750494,323.76402290622,0.014199405
0,0.0062900810925096,323.80899593571,0.01430082
0,0.0063556518820241,323.85396453694,0.014402245
0,0.0064212162448567,323.89892871078,0.01450368
0,0.0064867741822709,323.94388845808,0.014605125
0,0.0065523256955295,323.98884377973,0.01470658
0,0.0066178707858952,324.03379467658,0.014808045
0,0.0066834094546303,324.07874114954,0.01490952
0,0.0067489417029965,324.12368319943,0.015011005
0,0.0068144675322557,324.16862082717,0.0151125
0,0.0068799869436687,324.21355403362,0.015214005
0,0.0069454999384963,324.25848281963,0.01531552
0,0.0070110065179988,324.30340718606,0.015417045
0,0.0070765066834364,324.34832713382,0.01551858
0,0.0071420004360687,324.39324266374,0.015620125
0,0.0072074877771551,324.43815377674,0.01572168
0,0.0072729687079542,324.48306047364,0.015823245
0,0.0073384432297249,324.52796275533,0.01592482
0,0.0074039113437252,324.57286062268,0.016026405
0,0.0074693730512128,324.61775407655,0.016128
0,0.0075348283534452,324.66264311782,0.016229605
0,0.0076002772516795,324.70752774736,0.01633122
0,0.0076657197471723,324.752407966,0.016432845
0,0.00773115584118,324.79728377467,0.01653448
0,0.0077965855349584,324.84215517417,0.016636125
0,0.0078620088297633,324.88702216542,0.01673778
0,0.0079274257268496,324.93188474927,0.016839445
0,0.0079928362274724,324.97674292657,0.01694112
0,0.008058240332886,325.0215966982,0.017042805
0,0.0081236380443446,325.06644606505,0.0171445
0,0.0081890293631019,325.11129102793,0.017246205
0,0.0082544142904112,325.15613158774,0.01734792
0,0.0083197928275254,325.20096774536,0.017449645
0,0.0083851649756974,325.24579950164,0.01755138
0,0.0084505307361793,325.29062685741,0.017653125
0,0.008515890110223,325.33544981358,0.01775488
0,0.0085812430990798,325.380268371,0.017856645
0,0.008646589704001,325.42508253054,0.01795842
0,0.0087119299262375,325.46989229307,0.018060205
0,0.0087772637670395,325.51469765942,0.018162
0,0.0088425912276572,325.55949863048,0.018263805
0,0.0089079123093403,325.6042952071,0.01836562
0,0.0089732270133378,325.64908739014,0.018467445
0,0.009038535340899,325.6938751805,0.01856928
0,0.0091038372932723,325.738658579,0.018671125
0,0.0091691328717058,325.7834375865,0.01877298
0,0.0092344220774476,325.82821220388,0.018874845
0,0.0092997049117449,325.87298243202,0.01897672
0,0.0093649813758452,325.91774827174,0.019078605
0,0.0094302514709949,325.96250972393,0.0191805
0,0.0094955151984404,326.00726678945,0.019282405
0,0.0095607725594277,326.05201946913,0.01938432
0,0.0096260235552025,326.09676776385,0.019486245
0,0.0096912681870101,326.14151167447,0.01958818
0,0.0097565064560953,326.18625120187,0.019690125
0,0.0098217383637028,326.23098634688,0.01979208
0,0.0098869639110766,326.27571711036,0.019894045
8.4179611462126e-06,0.0099520782569587,326.31345787403,0.01999602
4.4580030796049e-05,0.01001684071184,326.32815641392,0.020098005
0.00010873640251868,0.010081248190726,326.31957498473,0.0202
0.00020113263408652,0.010145297666612,326.28747481782,0.020302005
0.00032202136758299,0.010208986024504,326.23160632963,0.02040402
0.00047165772919088,0.010272310118727,326.15171290092,0.020506045
0.00065029809843117,0.010335266788247,326.04753188806,0.02060808
0.00085819878852404,0.010397852873114,325.91879573992,0.020710125
0.0010956146673407,0.010460065231635,325.76523319803,0.02081218
0.0013627977215777,0.010521900758255,325.58657058124,0.020914245
0.001659995567725,0.010583356402098,325.38253315419,0.02101632
0.0019874499137683,0.010644429186124,325.15284657916,0.021118405
0.0023453949771346,0.01070511622682,324.89723844874,0.0212205
0.0027340558640808,0.010765414754384,324.61543989728,0.021322605
0.0031536469174711,0.010825322133284,324.30718728694,0.02142472
0.0036043700402766,0.010884835883133,323.9722239633,0.021526845
0.004086413002866,0.010943953699757,323.61030207476,0.02162898
0.0045999477431372,0.011002673476345,323.2211844485,0.021731125
0.0051451286689529,0.011060993324581,322.80464651423,0.02183328
0.0057220909734072,0.011118911595606,322.36047826632,0.021935445
0.0063309489734644,0.011176426900687,321.88848625345,0.02203762
0.0069717944835189,0.011233538131452,321.38849558369,0.022139805
0.0076446952354799,0.011290244479546,320.86035193184,0.022242
0.0083496933572989,0.011346545455551,320.30392353485,0.022344205
0.0090868039221431,0.011402440907031,319.71910316053,0.02244642
0.0098560135802074,0.011457931035541,319.10581003328,0.022548645
0.010657279285001,0.011513016412465,318.4639917009,0.02265088
0.011490527125916,0.011567697993518,317.7936258252,0.022753125
0.012355651277949,0.0116219771318,317.09472187982,0.02285538
0.013252513079106,0.011675855589252,316.36732273774,0.022957645
0.014180940245363,0.011729335546396,315.61150613221,0.02305992
0.015140726231571,0.011782419610261,314.82738597459,0.023162205
0.01613162974618,0.011835110820395,314.01511351361,0.0232645
0.017153374426108,0.01188741265287,313.17487832189,0.023366805
0.018205648676829,0.011939329022246,312.3069090963,0.02346912
0.019288105681264,0.011990864281416,311.41147426076,0.023571445
0.020400363579661,0.012042023219336,310.48888236153,0.02367378
0.021542005820999,0.012092811056604,309.53948224708,0.023776125
0.022712581684837,0.012143233438935,308.56366302685,0.02387848
0.023911606971049,0.012193296428524,307.56185380515,0.023980845
0.025138564853094,0.012243006493394,306.53452318924,0.02408322
0.026392906889285,0.012292370494762,305.48217857261,0.024185605
0.027674054184714,0.012341395672536,304.40536519727,0.024288
0.028981398695252,0.012390089629045,303.30466500063,0.024390405
0.030314304663969,0.012438460311116,302.18069525595,0.02449282
0.031672110178951,0.012486515990647,301.03410701613,0.024595245
0.033054128840669,0.012534265243812,299.86558337386,0.02469768
0.034459651526186,0.012581716929062,298.67583755245,0.024800125
0.035887948237056,0.012628880164091,297.46561084303,0.02490258
0.037338270016917,0.012675764301928,296.2356704059,0.025005045
0.038809850924962,0.012722378906343,294.98680695446,0.02510752
0.040301910050991,0.012768733726729,293.71983234082,0.025210005
0.041813653558129,0.01281483867265,292.43557706333,0.0253125
0.043344276739189,0.012860703788212,291.1348877161,0.025415005
0.04489296607348,0.01290633922644,289.81862440064,0.02551752
0.046458901270794,0.012951755223811,288.48765811973,0.025620045
0.04804125729059,0.012996962075097,287.14286817271,0.02572258
0.049639206324698,0.01304197010867,285.78513957097,0.025825125
0.051251919732804,0.013086789662391,284.41536049151,0.02592768
0.052878569921061,0.013131431060215,283.0344197847,0.026030245
0.054518332154888,0.013175904589613,281.64320455213,0.02613282
0.056170386298257,0.013220220479912,280.24259780796,0.026235405
0.057833918472629,0.013264388881643,278.83347623634,0.026338
0.059508122629826,0.013308419846953,277.41670805591,0.026440605
0.061192202034141,0.013352323311157,275.99315100031,0.02654322
0.062885370649942,0.013396109075468,274.56365042265,0.026645845
0.064586854432036,0.013439786790934,273.12903752991,0.02674848
0.066295892517084,0.013483365943613,271.69012775186,0.026851125
0.068011738314902,0.013526855840994,270.24771924746,0.02695378
0.06973366049979,0.013570265599669,268.80259155068,0.027056445
0.071460943902312,0.01361360413424,267.35550435586,0.02715912
0.073192890302951,0.01365688014745,265.90719644195,0.027261805
0.07492881912957,0.013700102121517,264.45838473352,0.0273645
0.076668068061029,0.013743278310631,263.00976349589,0.027467205
0.078409993540086,0.01378641673459,261.56200366029,0.02756992
0.080153971198792,0.013829525173517,260.11575227468,0.027672645
0.081899396200134,0.013872611163627,258.67163207508,0.02777538
0.083645683499833,0.013915681993987,257.23024117146,0.027878125
0.085392268032538,0.013958744704218,255.7921528425,0.02798088
0.087138604826732,0.014001806083082,254.35791543212,0.028083645
0.088884169052744,0.014044872667909,252.92805234178,0.02818642
0.090628456008381,0.014087950744795,251.50306211123,0.028289205
0.092370981046718,0.014131046349522,250.08341858112,0.028392
0.094111279450496,0.014174165269143,248.6695711304,0.028494805
0.095848906257559,0.014217313044179,247.26194498186,0.02859762
0.097583436041657,0.014260494971369,245.86094156908,0.028700445
0.099314462652825,0.014303716106921,244.46693895832,0.02880328
0.10104159892148,0.014346981270221,243.080292319,0.028906125
0.10276447286579,0.014390295091089,241.70133725205,0.02900898
0.10448273790135,0.014433661882634,240.33038173547,0.029111845
0.10619606171314,0.014477085779877,238.96771547487,0.02921472
0.10790412949556,0.014520570699416,237.61360753132,0.029317605
0.10960664353033,0.014564120344696,236.26830695048,0.0294205
0.11130332274896,0.014607738211481,234.9320434087,0.029523405
0.11299390228257,0.014651427593477,233.60502787174,0.02962632
0.11467813300175,0.014695191588077,232.28745326258,0.029729245
0.11635578104888,0.014739033102207,230.97949513436,0.02983218
0.11802662736505,0.01478295485823,229.6813123456,0.029935125
0.11969046721385,0.014826959399895,228.39304773451,0.03003808
0.12134710970366,0.0148710490983,227.11482878992,0.030141045
0.1229963773104,0.014915226157853,225.84676831627,0.03024402
0.12463810540216,0.014959492622205,224.58896509077,0.030347005
0.12627214176713,0.015003850380142,223.34150451072,0.03045
0.12789834614608,0.015048301171423,222.10445922935,0.030553005
0.1295165897706,0.015092846592544,220.87788977897,0.03065602
0.13112675490792,0.015137488102415,219.66184517998,0.030759045
0.13272873441335,0.015182227027952,218.45636353486,0.03086208
0.13432243129098,0.015227064569555,217.26147260627,0.030965125
0.13590775826331,0.015272001806481,216.07719037866,0.03106818
0.13748463735041,0.015317039702093,214.90352560267,0.031171245
0.139052999459,0.015362179108993,213.74047832205,0.03127432
0.14061278398185,0.015407420774013,212.58804038292,0.031377405
0.14216393840788,0.015452765343089,211.44619592485,0.0314805
0.14370641794304,0.015498213365985,210.31492185419,0.031583605
0.14524018514223,0.015543765300887,209.19418829918,0.03168672
0.14676520955241,0.015589421518855,208.08395904716,0.031789845
0.14828146736686,0.015635182308141,206.98419196416,0.03189298
0.14978894109068,0.015681047878356,205.8948393968,0.031996125
0.15128761921746,0.015727018364508,204.81584855698,0.03209928
0.15277749591704,0.015773093830896,203.74716188961,0.032202445
0.15425857073434,0.015819274274863,202.68871742375,0.03230562
0.15573084829903,0.015865559630427,201.64044910745,0.032408805
0.157194338046,0.015911949771759,200.60228712694,0.032512
0.15864905394629,0.015958444516543,199.57415821028,0.032615205
0.16009501424849,0.016005043629201,198.55598591619,0.03271842
0.16153224123024,0.016051746823995,197.54769090834,0.032821645
0.16296076095966,0.016098553767997,196.54919121576,0.03292488
0.16438060306655,0.016145464083949,195.56040247958,0.033028125
0.16579180052295,0.016192477352995,194.58123818687,0.03313138
0.16719438943301,0.016239593117306,193.61160989181,0.033234645
0.16858840883171,0.016286810882586,192.65142742487,0.03333792
0.16997390049238,0.016334130120475,191.70059909031,0.033441205
0.17135090874253,0.016381550270844,190.75903185264,0.0335445
0.17271948028799,0.016429070743992,189.82663151219,0.033647805
0.17407966404486,0.016476690922736,188.90330287074,0.03375112
0.17543151097915,0.016524410164414,187.98894988712,0.033854445
0.17677507395374,0.016572227802794,187.08347582362,0.03395778
0.17811040758262,0.016620143149887,186.18678338333,0.034061125
0.17943756809186,0.016668155497687,185.2987748391,0.03416448
0.18075661318726,0.016716264119814,184.41935215426,0.034267845
0.18206760192842,0.016764468273093,183.54841709568,0.03437122
0.18337059460889,0.016812767199036,182.68587133945,0.034474605
0.18466565264232,0.016861160125275,181.83161656947,0.034578
0.18595283845416,0.0169096462669,180.98555456955,0.034681405
0.18723221537892,0.016958224827747,180.14758730903,0.03478482
0.18850384756265,0.017006895001612,179.3176170225,0.034888245
0.18976779987042,0.017055655973404,178.49554628375,0.03499168
0.1910241377986,0.017104506920235,177.68127807444,0.035095125
0.19227292739182,0.017153447012462,176.87471584756,0.03519858
0.19351423516431,0.017202475414661,176.07576358605,0.035302045
0.19474812802548,0.017251591286557,175.284325857,0.03540552
0.19597467320956,0.0173007937839,174.50030786128,0.035509005
0.19719393820913,0.017350082059295,173.72361547932,0.0356125
0.19840599071237,0.017399455262982,172.95415531291,0.035716005
0.19961089854378,0.017448912543575,172.19183472336,0.03581952
0.20080872960842,0.017498453048756,171.4365618663,0.035923045
0.20199955183922,0.017548075925932,170.68824572317,0.03602658
0.20318343314758,0.017597780322852,169.94679612975,0.036130125
0.20436044137671,0.017647565388185,169.2121238017,0.03623368
0.20553064425796,0.017697430272066,168.48414035755,0.036337245
0.20669410936969,0.017747374126607,167.76275833908,0.03644082
0.20785090409883,0.017797396106378,167.04789122928,0.036544405
0.20900109560475,0.017847495368851,166.33945346819,0.036648
0.21014475078557,0.017897671074828,165.63736046655,0.036751605
0.21128193624658,0.017947922388825,164.94152861753,0.03685522
0.21241271827082,0.017998248479446,164.25187530665,0.036958845
0.2135371627917,0.018048648519718,163.56831891986,0.03706248
0.21465533536741,0.018099121687413,162.89077885021,0.037166125
0.21576730115725,0.01814966716534,162.21917550283,0.03726978
0.21687312489964,0.018200284141619,161.55343029863,0.037373445
0.21797287089179,0.018250971809934,160.89346567663,0.03747712
0.21906660297088,0.01830172936977,160.23920509511,0.037580805
0.22015438449675,0.018352556026622,159.59057303163,0.0376845
0.22123627833601,0.018403450992197,158.94749498195,0.037788205
0.22231234684744,0.018454413484594,158.30989745805,0.03789192
0.22338265186868,0.018505442728468,157.6777079852,0.037995645
0.22444725470406,0.018556537955184,157.05085509817,0.03809938
0.22550621611371,0.018607698402949,156.42926833674,0.038203125
0.22655959630354,0.018658923316939,155.81287824043,0.03830688
0.22760745491641,0.018710211949405,155.20161634262,0.038410645
0.22864985102417,0.018761563559775,154.59541516404,0.03851442
0.22968684312063,0.018812977414738,153.9942082057,0.038618205
0.2307184891154,0.018864452788323,153.39792994135,0.038722
0.23174484632858,0.018915988961963,152.80651580945,0.038825805
0.2327659714861,0.018967585224552,152.21990220472,0.03892962
0.23378192071594,0.01901924087249,151.63802646934,0.039033445
0.23479274954494,0.019070955209728,151.06082688374,0.03913728
0.23579851289628,0.019122727547792,150.48824265719,0.039241125
0.23679926508753,0.01917455720581,149.92021391797,0.03934498
0.23779505982937,0.019226443510526,149.35668170345,0.039448845
0.23878595022474,0.019278385796313,148.79758794981,0.03955272
0.23977198876861,0.019330383405171,148.24287548166,0.039656605
0.24075322734809,0.019382435686726,147.69248800146,0.0397605
0.24172971724309,0.019434541998225,147.14637007883,0.039864405
0.24270150912743,0.019486701704516,146.60446713965,0.03996832
0.2436686530702,0.019538914178033,146.06672545518,0.040072245
0.24463119853763,0.019591178798775,145.53309213101,0.04017618
0.24558919439524,0.019643494954271,145.00351509599,0.040280125
0.24654268891033,0.019695862039556,144.47794309109,0.04038408
0.24749172975475,0.019748279457133,143.95632565822,0.040488045
0.24843636400798,0.019800746616933,143.43861312908,0.04059202
0.24937663816046,0.019853262936272,142.92475661397,0.040696005
0.25031259811715,0.019905827839812,142.41470799057,0.0408
0.2512442892013,0.019958440759505,141.90841989285,0.040904005
0.25217175615853,0.020011101134548,141.40584569986,0.04100802
0.25309504316094,0.020063808411327,140.90693952474,0.041112045
0.25401419381153,0.020116562043367,140.41165620357,0.04121608
0.25492925114874,0.020169361491267,139.91995128449,0.041320125
0.25584025765112,0.020222206222647,139.43178101669,0.04142418
0.25674725524215,0.020275095712087,138.94710233967,0.041528245
0.25765028529521,0.020328029441061,138.46587287235,0.04163232
0.25854938863864,0.020381006897878,137.9880509025,0.041736405
0.2594446055609,0.020434027577612,137.51359537605,0.0418405
0.26033597581584,0.02048709098204,137.04246588669,0.041944605
0.26122353862802,0.020540196619575,136.57462266538,0.04204872
0.26210733269814,0.020593344005195,136.1100265701,0.042152845
0.26298739620854,0.020646532660375,135.64863907566,0.04225698
0.26386376682872,0.020699762113021,135.19042226361,0.042361125
0.26473648172091,0.020753031897392,134.73533881227,0.04246528
0.26560557754574,0.02080634155404,134.28335198688,0.042569445
0.26647109046788,0.02085969062973,133.83442562987,0.04267362
0.26733305616173,0.020913078677373,133.38852415123,0.042777805
0.26819150981713,0.020966505255951,132.94561251905,0.042882
0.26904648614513,0.021019969930451,132.50565625011,0.042986205
0.2698980193837,0.021073472271786,132.06862140064,0.04309042
0.27074614330346,0.021127011856727,131.63447455721,0.043194645
0.2715908912135,0.021180588267831,131.20318282773,0.04329888
0.27243229596703,0.021234201093366,130.77471383255,0.043403125
0.27327038996721,0.021287849927243,130.34903569576,0.04350738
0.27410520517283,0.02134153436894,129.92611703653,0.043611645
0.27493677310401,0.021395254023435,129.50592696064,0.04371592
0.27576512484795,0.02144900850113,129.08843505208,0.043820205
0.27659029106453,0.021502797417782,128.67361136487,0.0439245
0.27741230199201,0.021556620394434,128.26142641487,0.044028805
0.27823118745262,0.021610477057342,127.85185117185,0.04413312
0.27904697685818,0.021664367037905,127.44485705161,0.044237445
0.2798596992156,0.021718289972597,127.04041590821,0.04434178
0.28066938313244,0.021772245502896,126.63850002639,0.044446125
0.2814760568224,0.021826233275218,126.23908211407,0.04455048
0.28227974811072,0.021880252940845,125.84213529493,0.044654845
0.28308048443964,0.021934304155862,125.44763310123,0.04475922
0.28387829287368,0.021988386581084,125.05554946664,0.044863605
0.28467320010503,0.022042499881996,124.66585871922,0.044968
0.28546523245878,0.022096643728681,124.27853557452,0.045072405
0.28625441589815,0.022150817795758,123.89355512885,0.04517682
0.28704077602963,0.022205021762318,123.51089285252,0.045281245000001
0.28782433810818,0.022259255311856,123.13052458341,0.04538568
0.28860512704221,0.02231351813221,122.75242652041,0.045490125
0.28938316739867,0.0223678099155,122.37657521718,0.04559458
0.29015848340801,0.02242213035806,122.0029475759,0.045699045
0.29093109896904,0.022476479160383,121.63152084115,0.04580352
0.29170103765388,0.022530856027056,121.26227259393,0.045908005
0.2924683227127,0.0225852606667,120.89518074574,0.0460125
0.29323297707851,0.022639692791911,120.53022353281,0.046117005
0.29399502337184,0.022694152119202,120.1673795104,0.04622152
0.29475448390543,0.022748638368944,119.80662754721,0.046326045
0.29551138068875,0.022803151265309,119.44794681989,0.04643058
0.29626573543262,0.022857690536213,119.09131680766,0.046535125
0.29701756955361,0.022912255913256,118.73671728699,0.04663968
0.2977669041785,0.022966847131675,118.38412832646,0.046744245
0.29851376014867,0.023021463930283,118.03353028159,0.04684882
0.29925815802438,0.023076106051414,117.68490378987,0.046953405000001
0.30000011808904,0.023130773240875,117.33822976581,0.047058
0.3007396603534,0.023185465247889,116.99348939617,0.047162605
0.30147680455973,0.023240181825046,116.65066413514,0.04726722
0.30221157018587,0.023294922728248,116.30973569974,0.047371845
0.30294397644929,0.023349687716663,115.97068606523,0.04747648
0.30367404231106,0.023404476552671,115.63349746064,0.047581125
0.30440178647981,0.023459289001819,115.29815236434,0.04768578
0.30512722741555,0.023514124832767,114.96463349973,0.047790445
0.30585038333351,0.023568983817247,114.63292383105,0.04789512
0.30657127220795,0.023623865730009,114.30300655911,0.047999805
0.30728991177578,0.02367877034878,113.9748651173,0.0481045
0.30800631954031,0.023733697454214,113.64848316756,0.048209205
0.3087205127748,0.023788646829851,113.32384459642,0.04831392
0.30943250852605,0.023843618262067,113.00093351111,0.048418645
0.31014232361786,0.023898611540036,112.67973423588,0.04852338
0.31084997465452,0.023953626455684,112.36023130816,0.048628125
0.31155547802419,0.024008662803644,112.04240947499,0.04873288
0.31225884990229,0.02406372038122,111.72625368938,0.048837645
0.31296010625471,0.02411879898834,111.41174910686,0.04894242
0.31365926284116,0.024173898427517,111.09888108197,0.049047205
0.31435633521834,0.024229018503812,110.78763516492,0.049152000000001
0.31505133874304,0.024284159024789,110.47799709823,0.049256805
0.31574428857535,0.024339319800481,110.16995281351,0.04936162
0.31643519968161,0.024394500643349,109.86348842823,0.049466445000001
0.31712408683751,0.024449701368243,109.55859024262,0.04957128
0.31781096463098,0.024504921792371,109.25524473652,0.049676125
0.31849584746519,0.024560161735255,108.95343856647,0.04978098
0.31917874956136,0.024615421018698,108.65315856262,0.049885845
0.3198596849616,0.024670699466752,108.35439172592,0.04999072
0.32053866753174,0.024725996905677,108.05712522521,0.050095605
0.32121571096403,0.02478131316391,107.76134639445,0.0502005
0.32189082877983,0.024836648072031,107.46704272994,0.050305405
0.32256403433231,0.02489200146273,107.17420188765,0.05041032
0.32323534080904,0.024947373170773,106.88281168056,0.050515245
0.32390476123456,0.025002763032972,106.59286007607,0.05062018
0.32457230847291,0.025058170888149,106.30433519344,0.050725125000001
0.32523799523015,0.02511359657711,106.01722530131,0.050830080000001
0.32590183405678,0.025169039942612,105.73151881523,0.050935045000001
0.32656383735016,0.02522450082933,105.44720429524,0.05104002
0.32722401735689,0.025279979083832,105.16427044355,0.051145005
0.32788238617516,0.025335474554548,104.88270610216,0.05125
0.32853895575702,0.02539098709174,104.60250025064,0.051355005
0.32919373791067,0.025446516547474,104.32364200387,0.05146002
0.32984674430266,0.025502062775594,104.04612060985,0.051565045
0.33049798646008,0.025557625631693,103.76992544755,0.05167008
0.33114747577275,0.025613204973084,103.49504602481,0.051775125
0.33179522349528,0.025668800658779,103.22147197624,0.05188018
0.33244124074921,0.025724412549458,102.94919306124,0.051985245
0.33308553852501,0.025780040507446,102.67819916193,0.05209032
0.33372812768415,0.025835684396684,102.40848028126,0.052195405
0.33436901896103,0.025891344082711,102.14002654106,0.0523005
0.33500822296494,0.025947019432633,101.87282818015,0.052405605
0.33564575018204,0.026002710315101,101.60687555248,0.05251072
0.33628161097716,0.026058416600288,101.34215912535,0.052615845
0.33691581559571,0.026114138159869,101.07866947758,0.052720980000001
0.33754837416548,0.026169874866989,100.81639729778,0.052826125000001
0.33817929669845,0.02622562659625,100.55533338267,0.052931280000001
0.33880859309257,0.026281393223684,100.2954686353,0.053036445000001
0.33943627313346,0.026337174626734,100.03679406348,0.053141620000001
0.34006234649613,0.026392970684227,99.779300778132,0.053246805000001
0.34068682274668,0.026448781276361,99.522979991659,0.053352
0.34130971134394,0.026504606284679,99.267823016417,0.053457205
0.34193102164107,0.026560445592048,99.013821263173,0.05356242
0.34255076288721,0.026616299082643,98.760966239569,0.053667645
0.34316894422898,0.026672166641925,98.509249548669,0.05377288
0.34378557471211,0.02672804815662,98.258662887486,0.053878125
0.34440066328287,0.026783943514705,98.009198045561,0.05398338
0.34501421878964,0.026839852605383,97.760846903553,0.054088645
0.34562624998433,0.02689577531907,97.513601431866,0.05419392
0.34623676552385,0.026951711547372,97.267453689294,0.054299205
0.34684577397151,0.027007661183073,97.022395821697,0.0544045
0.34745328379843,0.027063624120112,96.778420060693,0.054509805000001
0.34805930338493,0.027119600253569,96.535518722371,0.054615120000001
0.34866384102183,0.027175589479646,96.293684206049,0.054720445000001
0.34926690491185,0.027231591695654,96.052908993019,0.054825780000001
0.34986850317084,0.027287606799993,95.813185645348,0.054931125000001
0.35046864382911,0.027343634692135,95.57450680468,0.055036480000001
0.35106733483271,0.027399675272613,95.33686519107,0.055141845
0.35166458404462,0.027455728443002,95.100253601828,0.055247220000001
0.352260399246,0.027511794105904,94.864664910402,0.055352605
0.35285478813738,0.027567872164934,94.630092065248,0.055458000000001
0.35344775833987,0.027623962524704,94.396528088765,0.055563405
0.35403931739629,0.027680065090808,94.163966076208,0.055668820000001
0.35462947277231,0.027736179769812,93.932399194643,0.055774245
0.35521823185759,0.027792306469234,93.701820681914,0.05587968
0.35580560196689,0.027848445097532,93.47222384563,0.055985125
0.35639159034112,0.027904595564094,93.243602062163,0.05609058
0.35697620414846,0.027960757779221,93.015948775677,0.056196045
0.35755945048536,0.028016931654113,92.789257497155,0.05630152
0.35814133637759,0.028073117100859,92.563521803464,0.056407005
0.35872186878127,0.028129314032424,92.338735336424,0.056512500000001
0.35930105458386,0.028185522362634,92.114891801889,0.056618005000001
0.35987890060512,0.028241742006166,91.891984968856,0.056723520000001
0.36045541359811,0.028297972878534,91.670008668586,0.056829045000001
0.36103060025012,0.028354214896081,91.448956793723,0.056934580000001
0.36160446718361,0.028410467975961,91.22882329747,0.057040125000001
0.3621770209571,0.028466732036133,91.009602192727,0.057145680000001
0.36274826806614,0.028523006995348,90.791287551275,0.057251245000001
0.36331821494411,0.028579292773138,90.573873502977,0.057356820000001
0.36388686796318,0.028635589289801,90.35735423498,0.057462405000001
0.36445423343511,0.028691896466399,90.14172399092,0.057568
0.36502031761209,0.028748214224739,89.926977070187,0.057673605
0.36558512668764,0.028804542487367,89.713107827128,0.05777922
0.36614866679734,0.028860881177556,89.500110670338,0.057884845
0.3667109440197,0.028917230219297,89.287980061926,0.05799048
0.3672719643769,0.02897358953729,89.076710516778,0.058096125
0.36783173383562,0.02902995905693,88.866296601886,0.05820178
0.36839025830775,0.029086338704302,88.656732935614,0.058307445000001
0.36894754365119,0.029142728406172,88.448014187056,0.058413120000001
0.36950359567054,0.029199128089971,88.240135075337,0.058518805000001
0.37005842011787,0.029255537683794,88.033090368974,0.058624500000001
0.37061202269343,0.029311957116387,87.826874885216,0.058730205000001
0.37116440904634,0.029368386317139,87.621483489408,0.058835920000001
0.37171558477527,0.029424825216071,87.41691109437,0.058941645000001
0.37226555542915,0.029481273743832,87.213152659781,0.059047380000001
0.37281432650782,0.029537731831687,87.01020319156,0.059153125000001
0.37336190346272,0.02959419941151,86.808057741288,0.059258880000001
0.37390829169748,0.029650676415776,86.60671140561,0.059364645000001
0.37445349656862,0.029707162777552,86.406159325662,0.059470420000001
0.37499752338613,0.029763658430491,86.206396686504,0.059576205
0.37554037741412,0.029820163308822,86.007418716557,0.059682000000001
0.37608206387141,0.029876677347345,85.809220687061,0.059787805
0.37662258793212,0.02993320048142,85.61179791153,0.059893620000001
0.3771619547263,0.029989732646965,85.415145745218,0.059999445000001
0.37770016934043,0.030046273780441,85.219259584608,0.060105280000001
0.37823723681809,0.030102823818853,85.024134866883,0.060211125000001
0.37877316216041,0.030159382699737,84.829767069423,0.060316980000001
0.37930795032673,0.030215950361158,84.63615170932,0.060422845000001
0.37984160623504,0.030272526741697,84.443284342864,0.060528720000001
0.3803741347626,0.03032911178045,84.25116056508,0.060634605000001
0.3809055407464,0.03038570541702,84.059776009251,0.060740500000001
0.38143582898372,0.030442307591509,83.869126346435,0.060846405000001
0.3819650042326,0.030498918244513,83.679207285025,0.060952320000001
0.38249307121238,0.030555537317113,83.490014570284,0.061058245000001
0.38302003460416,0.030612164750873,83.301543983901,0.061164180000001
0.3835458990513,0.030668800487833,83.113791343556,0.061270125000001
0.3840706691599,0.0307254444705,82.926752502481,0.061376080000001
0.38459434949924,0.030782096641845,82.740423349044,0.061482045000001
0.38511694460228,0.030838756945296,82.554799806324,0.061588020000001
0.38563845896611,0.030895425324733,82.369877831701,0.061694005000001
0.38615889705234,0.030952101724482,82.185653416446,0.061800000000001
0.38667826328763,0.031008786089308,82.002122585326,0.061906005000001
0.38719656206405,0.031065478364414,81.819281396216,0.06201202
0.38771379773954,0.031122178495431,81.637125939696,0.062118045000001
0.38822997463834,0.031178886428414,81.455652338677,0.062224080000001
0.38874509705135,0.031235602109839,81.274856748036,0.062330125000001
0.38925916923659,0.031292325486593,81.094735354228,0.062436180000001
0.3897721954196,0.031349056505977,80.915284374935,0.062542245000001
0.39028417979379,0.031405795115692,80.736500058694,0.062648320000001
0.39079512652087,0.03146254126384,80.55837868456,0.062754405000001
0.39130503973122,0.031519294898918,80.380916561741,0.062860500000001
0.39181392352423,0.031576055969811,80.204110029268,0.062966605000001
0.39232178196874,0.031632824425793,80.02795545565,0.063072720000001
0.39282861910336,0.031689600216514,79.852449238538,0.063178845000001
0.39333443893681,0.031746383292003,79.677587804405,0.063284980000001
0.39383924544833,0.031803173602661,79.503367608221,0.063391125000001
0.39434304258797,0.031859971099254,79.329785133125,0.063497280000001
0.39484583427699,0.031916775732913,79.156836890125,0.063603445000001
0.39534762440813,0.031973587455128,78.984519417776,0.063709620000001
0.39584841684602,0.032030406217741,78.81282928189,0.063815805
0.39634821542742,0.032087231972949,78.641763075218,0.063922000000001
0.39684702396163,0.032144064673291,78.47131741717,0.064028205000001
0.39734484623074,0.032200904271651,78.30148895351,0.064134420000001
0.39784168598998,0.032257750721252,78.13227435608,0.064240645000001
0.398337546968,0.032314603975649,77.963670322509,0.064346880000001
0.39883243286721,0.032371463988731,77.795673575934,0.064453125000001
0.39932634736405,0.032428330714712,77.628280864729,0.064559380000001
0.39981929410928,0.032485204108132,77.461488962232,0.064665645000001
0.40031127672829,0.032542084123847,77.295294666473,0.064771920000001
0.40080229882138,0.032598970717033,77.129694799916,0.064878205000001
0.40129236396404,0.032655863843177,76.964686209199,0.064984500000001
0.40178147570721,0.032712763458075,76.800265764869,0.065090805000001
0.40226963757758,0.03276966951783,76.636430361141,0.065197120000001
0.40275685307785,0.032826581978846,76.47317691564,0.065303445000001
0.40324312568697,0.032883500797827,76.310502369158,0.065409780000001
0.40372845886046,0.032940425931774,76.148403685414,0.065516125000001
0.40421285603059,0.032997357337978,75.98687785081,0.065622480000001
0.40469632060669,0.033054294974022,75.825921874199,0.065728845000001
0.40517885597539,0.033111238797774,75.665532786649,0.065835220000001
0.40566046550085,0.033168188767385,75.505707641222,0.065941605000001
0.406141152525,0.033225144841287,75.346443512732,0.066048000000001
0.40662092036781,0.033282106978188,75.187737497541,0.066154405000001
0.4070997723275,0.033339075137071,75.029586713326,0.066260820000001
0.40757771168077,0.033396049277192,74.871988298859,0.066367245000001
0.40805474168303,0.033453029358072,74.714939413808,0.066473680000001
0.40853086556865,0.033510015339501,74.558437238515,0.066580125000001
0.40900608655115,0.033567007181529,74.402478973781,0.066686580000001
0.40948040782344,0.033624004844468,74.247061840678,0.066793045000001
0.40995383255803,0.033681008288886,74.092183080332,0.066899520000001
0.41042636390722,0.033738017475607,73.937839953729,0.067006005000001
0.41089800500336,0.033795032365706,73.784029741515,0.067112500000001
0.41136875895901,0.033852052920508,73.630749743799,0.067219005000001
0.41183862886717,0.033909079101586,73.477997279963,0.067325520000001
0.41230761780146,0.033966110870754,73.325769688478,0.067432045000001
0.41277572881635,0.034023148190071,73.174064326704,0.067538580000001
0.41324296494731,0.034080191021835,73.022878570718,0.067645125000001
0.41370932921106,0.034137239328581,72.872209815118,0.067751680000001
0.4141748246057,0.034194293073076,72.722055472852,0.067858245000001
0.41463945411094,0.034251352218323,72.572412975044,0.067964820000001
0.41510322068827,0.034308416727553,72.423279770802,0.068071405000001
0.41556612728114,0.034365486564225,72.274653327063,0.068178000000001
0.41602817681515,0.034422561692024,72.126531128412,0.068284605000001
0.41648937219821,0.034479642074857,71.978910676911,0.068391220000001
0.41694971632073,0.034536727676852,71.831789491938,0.068497845
0.41740921205577,0.034593818462357,71.685165110024,0.068604480000001
0.41786786225926,0.034650914395936,71.539035084681,0.068711125
0.41832566977011,0.034708015442368,71.393396986251,0.06881778
0.41878263741039,0.034765121566644,71.24824840174,0.068924445000001
0.41923876798554,0.034822232733965,71.103586934667,0.06903112
0.41969406428445,0.034879348909742,70.959410204909,0.069137805
0.4201485290797,0.034936470059591,70.815715848541,0.0692445
0.42060216512765,0.034993596149333,70.672501517695,0.069351205
0.42105497516865,0.035050727144991,70.529764880407,0.06945792
0.42150696192714,0.03510786301279,70.387503620468,0.069564645
0.42195812811184,0.035165003719151,70.245715437277,0.06967138
0.42240847641589,0.035222149230696,70.104398045709,0.069778125
0.42285800951699,0.035279299514238,69.963549175955,0.069884880000001
0.42330673007753,0.035336454536785,69.823166573401,0.069991645
0.42375464074476,0.035393614265537,69.683247998474,0.070098420000001
0.42420174415093,0.035450778667881,69.543791226514,0.070205205
0.4246480429134,0.035507947711396,69.404794047639,0.070312
0.4250935396348,0.035565121363843,69.266254266605,0.070418805000001
0.42553823690317,0.03562229959317,69.12816970268,0.070525620000001
0.42598213729208,0.035679482367507,68.990538189513,0.070632445000001
0.42642524336076,0.035736669655166,68.853357575005,0.070739280000001
0.42686755765424,0.035793861424636,68.716625721178,0.070846125
0.42730908270347,0.035851057644587,68.580340504057,0.07095298
0.42774982102547,0.035908258283863,68.444499813537,0.071059845000001
0.42818977512341,0.035965463311483,68.30910155327,0.07116672
0.42862894748678,0.036022672696641,68.174143640532,0.071273605
0.42906734059148,0.036079886408701,68.039624006114,0.0713805
0.42950495689997,0.036137104417196,67.905540594195,0.071487405
0.42994179886134,0.03619432669183,67.771891362235,0.07159432
0.4303778689115,0.036251553202474,67.638674280846,0.071701245
0.43081316947321,0.036308783919161,67.50588733369,0.07180818
0.43124770295629,0.036366018812093,67.373528517356,0.071915125
0.43168147175763,0.036423257851632,67.241595841257,0.07202208
0.4321144782614,0.036480501008303,67.110087327511,0.072129045
0.43254672483909,0.036537748252789,66.979001010838,0.07223602
0.43297821384964,0.036594999555933,66.84833493845,0.072343005
0.43340894763957,0.036652254888735,66.718087169946,0.07245
0.43383892854304,0.036709514222351,66.588255777199,0.072557005
0.43426815888202,0.036766777528092,66.458838844258,0.07266402
0.43469664096632,0.036824044777421,66.329834467246,0.072771045
0.43512437709374,0.036881315941955,66.201240754256,0.07287808
0.43555136955018,0.03693859099346,66.073055825249,0.072985125
0.43597762060969,0.036995869903853,65.945277811952,0.07309218
0.43640313253461,0.037053152645197,65.817904857763,0.073199245
0.43682790757566,0.037110439189704,65.690935117658,0.07330632
0.43725194797202,0.037167729509732,65.564366758078,0.073413405
0.43767525595146,0.037225023577782,65.438197956854,0.0735205
0.43809783373038,0.0372823213665,65.312426903097,0.073627605
0.43851968351396,0.037339622848673,65.187051797116,0.07373472
0.43894080749621,0.03739692799723,65.062070850312,0.073841845
0.43936120786009,0.03745423678524,64.937482285101,0.07394898
0.43978088677757,0.03751154918591,64.813284334815,0.074056125
0.44019984640976,0.037568865172585,64.689475243613,0.07416328
0.44061808890695,0.037626184718747,64.566053266397,0.074270445
0.44103561640874,0.037683507798014,64.443016668722,0.07437762
0.44145243104407,0.037740834384137,64.320363726704,0.074484805
0.44186853493138,0.037798164451001,64.198092726945,0.074592
0.44228393017863,0.037855497972624,64.076201966439,0.074699205
0.44269861888342,0.037912834923155,63.954689752493,0.07480642
0.44311260313304,0.037970175276872,63.833554402642,0.074913645
0.44352588500458,0.038027519008185,63.712794244571,0.07502088
0.443938466565,0.038084866091629,63.592407616026,0.075128125
0.4443503498712,0.038142216501867,63.472392864738,0.07523538
0.44476153697011,0.038199570213692,63.352748348348,0.075342645
0.44517202989876,0.038256927202016,63.233472434319,0.07544992
0.44558183068437,0.038314287441881,63.114563499864,0.075557205
0.44599094134439,0.038371650908448,62.996019931869,0.0756645
0.44639936388662,0.038429017577005,62.877840126816,0.075771805
0.44680710030926,0.038486387422956,62.760022490704,0.07587912
0.44721415260097,0.03854376042183,62.642565438977,0.075986445
0.44762052274098,0.038601136549275,62.525467396453,0.07609378
0.44802621269912,0.038658515781055,62.408726797249,0.076201125
0.44843122443593,0.038715898093055,62.292342084702,0.07630848
0.44883555990268,0.038773283461276,62.176311711306,0.076415845
0.44923922104149,0.038830671861834,62.060634138638,0.07652322
0.44964220978539,0.038888063270963,61.945307837287,0.076630605
0.45004452805833,0.038945457665008,61.830331286785,0.076738
0.45044617777533,0.03900285502043,61.715702975538,0.076845405
0.4508471608425,0.039060255313802,61.601421400756,0.07695282
0.45124747915709,0.039117658521808,61.487485068389,0.077060245
0.45164713460761,0.039175064621246,61.373892493057,0.07716768
0.45204612907384,0.039232473589021,61.260642197988,0.077275125
0.45244446442691,0.039289885402149,61.147732714947,0.07738258
0.45284214252939,0.039347300037755,61.035162584174,0.077490045
0.45323916523531,0.039404717473071,60.92293035432,0.07759752
0.45363553439024,0.039462137685437,60.811034582384,0.077705005
0.45403125183136,0.039519560652299,60.699473833646,0.0778125
0.45442631938751,0.039576986351209,60.588246681611,0.077920005
0.45482073887924,0.039634414759824,60.477351707943,0.07802752
0.4552145121189,0.039691845855904,60.366787502403,0.078135045
0.45560764091065,0.039749279617313,60.25655266279,0.07824258
0.45600012705056,0.039806716022019,60.146645794885,0.078350125
0.45639197232667,0.03986415504809,60.037065512382,0.07845768
0.45678317851898,0.039921596673697,59.927810436841,0.078565245
0.45717374739961,0.03997904087711,59.818879197616,0.07867282
0.45756368073275,0.040036487636699,59.710270431813,0.078780405
0.45795298027481,0.040093936930935,59.60198278422,0.078888
0.45834164777438,0.040151388738386,59.494014907257,0.078995605
0.45872968497237,0.040208843037717,59.386365460916,0.07910322
0.45911709360201,0.040266299807693,59.279033112711,0.079210845
0.45950387538892,0.040323759027172,59.172016537614,0.07931848
0.45989003205115,0.04038122067511,59.065314418013,0.079426125
0.46027556529926,0.040438684730558,58.958925443644,0.07953378
0.46066047683633,0.040496151172661,58.85284831155,0.079641445
0.46104476835804,0.040553619980658,58.747081726021,0.07974912
0.46142844155272,0.040611091133882,58.641624398541,0.079856805
0.46181149810138,0.040668564611757,58.536475047741,0.0799645
0.46219393967779,0.040726040393801,58.431632399341,0.080072205
0.46257576794848,0.040783518459621,58.327095186108,0.08017992
0.46295698457283,0.040840998788919,58.222862147795,0.080287645
0.46333759120312,0.040898481361482,58.118932031095,0.08039538
0.46371758948454,0.04095596615719,58.0153035896,0.080503125
0.46409698105527,0.041013453156011,57.911975583735,0.08061088
0.46447576754651,0.041070942338001,57.808946780723,0.080718645
0.46485395058253,0.041128433683306,57.706215954529,0.08082642
0.46523153178072,0.041185927172157,57.60378188582,0.080934205
0.46560851275161,0.041243422784872,57.501643361909,0.081042
0.46598489509898,0.041300920501855,57.399799176713,0.081149805
0.46636068041981,0.041358420303598,57.298248130704,0.08125762
0.4667358703044,0.041415922170675,57.196989030865,0.081365445
0.46711046633638,0.041473426083747,57.096020690642,0.08147328
0.46748447009275,0.041530932023556,56.995341929903,0.081581125
0.46785788314395,0.041588439970931,56.894951574888,0.08168898
0.46823070705387,0.04164594990678,56.794848458165,0.081796845
0.46860294337989,0.041703461812098,56.69503141859,0.08190472
0.46897459367297,0.041760975667958,56.595499301261,0.082012605
0.46934565947763,0.041818491455515,56.496250957472,0.0821205
0.46971614233203,0.041876009156008,56.397285244674,0.082228405
0.47008604376798,0.041933528750751,56.29860102643,0.08233632
0.47045536531102,0.041991050221142,56.200197172376,0.082444245
0.47082410848042,0.042048573548657,56.102072558173,0.08255218
0.47119227478924,0.042106098714851,56.004226065471,0.082660125
0.47155986574437,0.042163625701358,55.90665658187,0.08276808
0.47192688284655,0.042221154489887,55.809363000868,0.082876045
0.47229332759043,0.042278685062228,55.712344221837,0.08298402
0.4726592014646,0.042336217400246,55.615599149965,0.083092005
0.47302450595161,0.042393751485882,55.519126696232,0.0832
0.47338924252803,0.042451287301156,55.422925777363,0.083308005
0.47375341266449,0.042508824828159,55.326995315787,0.08341602
0.47411701782569,0.04256636404906,55.231334239605,0.083524045
0.47448005947046,0.042623904946102,55.135941482546,0.08363208
0.47484253905177,0.042681447501603,55.040815983932,0.083740125
0.47520445801681,0.042738991697952,54.945956688639,0.08384818
0.47556581780697,0.042796537517615,54.851362547059,0.083956245
0.47592661985791,0.042854084943127,54.757032515068,0.08406432
0.47628686559961,0.042911633957099,54.662965553978,0.084172405
0.47664655645634,0.042969184542211,54.569160630516,0.0842805
0.47700569384676,0.043026736681216,54.475616716775,0.084388605
0.47736427918391,0.043084290356937,54.382332790182,0.08449672
0.47772231387529,0.04314184555227,54.289307833468,0.084604845
0.47807979932284,0.043199402250179,54.196540834623,0.08471298
0.478436736923,0.043256960433698,54.104030786869,0.084821125
0.47879312806674,0.043314520085932,54.011776688625,0.08492928
0.47914897413959,0.043372081190054,53.919777543465,0.085037445
0.47950427652168,0.043429643729305,53.828032360093,0.08514562
0.47985903658776,0.043487207686996,53.736540152306,0.085253805
0.48021325570723,0.043544773046503,53.645299938957,0.085362
0.48056693524419,0.043602339791273,53.554310743928,0.085470205
0.48092007655744,0.043659907904817,53.463571596091,0.08557842
0.48127268100055,0.043717477370715,53.373081529282,0.085686645
0.48162474992185,0.043775048172612,53.282839582262,0.08579488
0.48197628466448,0.043832620294218,53.192844798689,0.085903124999999
0.48232728656643,0.04389019371931,53.103096227084,0.086011379999999
0.48267775696056,0.043947768431731,53.013592920801,0.086119644999999
0.4830276971746,0.044005344415387,52.924333937996,0.086227919999999
0.48337710853124,0.044062921654248,52.835318341594,0.086336204999999
0.48372599234811,0.04412050013235,52.746545199257,0.086444499999999
0.48407434993781,0.044178079833791,52.658013583359,0.086552804999999
0.48442218260798,0.044235660742734,52.569722570951,0.086661119999999
0.48476949166129,0.044293242843403,52.48167124373,0.086769444999999
0.48511627839545,0.044350826120087,52.393858688015,0.086877779999999
0.48546254410331,0.044408410557134,52.306283994712,0.086986124999999
0.48580829007282,0.044465996138958,52.218946259284,0.087094479999999
0.48615351758708,0.04452358285003,52.131844581728,0.087202844999999
0.48649822792438,0.044581170674887,52.044978066539,0.087311219999999
0.48684242235819,0.044638759598123,51.958345822687,0.087419604999999
0.48718610215723,0.044696349604395,51.871946963585,0.087527999999999
0.48752926858548,0.044753940678418,51.785780607061,0.087636404999999
0.48787192290219,0.04481153280497,51.699845875333,0.087744819999999
0.48821406636193,0.044869125968886,51.614141894978,0.087853244999999
0.4885557002146,0.044926720155061,51.528667796906,0.087961679999999
0.48889682570546,0.044984315348449,51.443422716333,0.088070124999999
0.48923744407515,0.045041911534063,51.35840579275,0.08817858
0.48957755655974,0.045099508696972,51.273616169903,0.088287044999999
0.48991716439073,0.045157106822308,51.189052995761,0.088395519999999
0.49025626879506,0.045214705895254,51.104715422492,0.088504004999999
0.49059487099517,0.045272305901057,51.020602606435,0.088612499999999
0.49093297220902,0.045329906825015,50.936713708074,0.088721004999999
0.4912705736501,0.045387508652487,50.853047892015,0.088829519999999
0.49160767652743,0.045445111368888,50.769604326957,0.088938044999999
0.49194428204566,0.045502714959686,50.686382185667,0.089046579999999
0.49228039140501,0.045560319410407,50.603380644959,0.089155124999999
0.49261600580134,0.045617924706634,50.520598885659,0.089263679999999
0.49295112642615,0.045675530834003,50.438036092594,0.089372244999999
0.49328575446664,0.045733137778206,50.355691454555,0.089480819999999
0.49361989110569,0.045790745524988,50.273564164279,0.089589404999999
0.49395353752192,0.04584835406015,50.191653418423,0.089697999999999
0.49428669488965,0.045905963369548,50.10995841754,0.089806604999999
0.49461936437902,0.045963573439088,50.028478366055,0.089915219999999
0.49495154715593,0.046021184254734,49.94721247224,0.090023844999999
0.49528324438209,0.046078795802501,49.866159948195,0.090132479999999
0.49561445721505,0.046136408068456,49.785320009817,0.090241124999999
0.49594518680821,0.046194021038721,49.704691876784,0.090349779999999
0.49627543431085,0.046251634699468,49.624274772529,0.090458444999999
0.49660520086814,0.046309249036923,49.544067924216,0.090567119999999
0.49693448762118,0.046366864037363,49.464070562719,0.090675804999999
0.49726329570699,0.046424479687118,49.3842819226,0.090784499999999
0.49759162625858,0.046482095972566,49.304701242085,0.090893204999999
0.49791948040491,0.046539712880139,49.225327763039,0.091001919999999
0.49824685927096,0.046597330396319,49.146160730953,0.091110644999999
0.49857376397774,0.046654948507638,49.067199394914,0.091219379999999
0.49890019564228,0.04671256720068,48.988443007585,0.091328124999999
0.49922615537769,0.046770186462076,48.909890825187,0.091436879999999
0.49955164429316,0.04682780627851,48.831542107471,0.091545644999999
0.49987666349399,0.046885426636713,48.753396117705,0.091654419999999
0.50020121408157,0.046943047523468,48.675452122647,0.091763204999999
0.50052529715349,0.047000668925603,48.597709392524,0.091871999999999
0.50084891380345,0.047058290829999,48.520167201017,0.091980804999999
0.50117206512136,0.047115913223582,48.442824825233,0.092089619999999
0.50149475219332,0.047173536093329,48.365681545688,0.092198444999999
0.50181697610166,0.047231159426263,48.288736646292,0.092307279999999
0.50213873792493,0.047288783209458,48.211989414317,0.092416124999999
0.50246003873796,0.04734640743003,48.135439140387,0.092524979999999
0.50278087961184,0.047404032075148,48.059085118456,0.092633844999999
0.50310126161397,0.047461657132025,47.982926645784,0.092742719999999
0.50342118580805,0.047519282587921,47.906963022923,0.092851604999999
0.50374065325411,0.047576908430143,47.831193553693,0.092960499999999
0.50405966500855,0.047634534646046,47.755617545167,0.093069404999999
0.50437822212411,0.047692161223028,47.680234307651,0.093178319999999
0.50469632564995,0.047749788148536,47.605043154661,0.093287244999999
0.50501397663159,0.047807415410061,47.530043402906,0.093396179999999
0.50533117611102,0.047865042995139,47.455234372274,0.093505124999999
0.50564792512663,0.047922670891352,47.380615385808,0.093614079999999
0.50596422471329,0.047980299086328,47.306185769689,0.093723044999999
0.50628007590234,0.048037927567739,47.231944853216,0.093832019999999
0.50659547972159,0.048095556323301,47.157891968795,0.093941004999999
0.50691043719539,0.048153185340775,47.08402645191,0.094049999999999
0.5072249493446,0.048210814607966,47.010347641114,0.094159004999999
0.50753901718661,0.048268444112723,46.936854878008,0.094268019999999
0.50785264173539,0.048326073842939,46.863547507221,0.094377044999999
0.50816582400148,0.04838370378655,46.790424876398,0.094486079999999
0.508478564992,0.048441333931535,46.717486336176,0.094595124999999
0.50879086571069,0.048498964265918,46.644731240173,0.094704179999999
0.50910272715792,0.048556594777765,46.572158944966,0.094813244999999
0.50941415033067,0.048614225455182,46.499768810077,0.094922319999999
0.50972513622262,0.048671856286322,46.427560197954,0.095031404999999
0.5100356858241,0.048729487259377,46.355532473956,0.095140499999999
0.51034580012212,0.048787118362583,46.283685006334,0.095249604999999
0.51065548010041,0.048844749584216,46.212017166219,0.095358719999999
0.51096472673942,0.048902380912596,46.1405283276,0.095467844999999
0.51127354101632,0.048960012336082,46.069217867309,0.095576979999999
0.51158192390506,0.049017643843077,45.998085165007,0.095686124999999
0.51188987637632,0.049075275422022,45.92712960317,0.095795279999999
0.5121973993976,0.049132907061403,45.856350567064,0.095904444999999
0.51250449393316,0.049190538749742,45.785747444739,0.096013619999999
0.51281116094411,0.049248170475605,45.715319627008,0.096122804999999
0.51311740138834,0.049305802227596,45.645066507432,0.096231999999999
0.51342321622063,0.049363433994362,45.574987482306,0.096341204999999
0.5137286063926,0.049421065764588,45.50508195064,0.096450419999999
0.51403357285271,0.049478697526998,45.435349314149,0.096559644999999
0.51433811654636,0.049536329270357,45.365788977235,0.096668879999999
0.51464223841581,0.04959396098347,45.296400346967,0.096778124999999
0.51494593940025,0.049651592655179,45.227182833077,0.096887379999999
0.5152492204358,0.049709224274367,45.158135847936,0.096996644999999
0.51555208245551,0.049766855829955,45.08925880654,0.097105919999999
0.51585452638941,0.049824487310904,45.020551126501,0.097215204999999
0.51615655316449,0.04988211870621,44.952012228025,0.097324499999999
0.51645816370471,0.049939750004912,44.883641533905,0.097433804999999
0.51675935785291,0.049997381209513,44.815438720101,0.097543119999999
0.51706013763474,0.050055012295328,44.747402956538,0.097652444999999
0.51736050396448,0.050112643251517,44.679533673863,0.097761779999999
0.51766045775348,0.050170274067277,44.611830305247,0.097871124999999
0.51795999991013,0.050227904731842,44.544292286366,0.097980479999999
0.51825913133993,0.050285535234484,44.476919055391,0.098089844999999
0.51855785294548,0.050343165564512,44.409710052971,0.098199219999999
0.51885616562647,0.05040079571127,44.34266472222,0.098308604999999
0.51915407027972,0.050458425664141,44.27578250871,0.098417999999999
0.51945156779919,0.050516055412543,44.209062860444,0.098527404999999
0.51974865907599,0.05057368494593,44.142505227859,0.098636819999999
0.52004534499838,0.050631314253792,44.076109063798,0.098746244999999
0.5203416264518,0.050688943325657,44.009873823507,0.098855679999999
0.52063750431888,0.050746572151087,43.943798964616,0.098965124999999
0.52093297947945,0.050804200719679,43.877883947129,0.099074579999999
0.52122805281053,0.050861829021067,43.812128233411,0.099184044999999
0.52152272518639,0.05091945704492,43.746531288174,0.099293519999999
0.5218169974785,0.050977084780942,43.681092578462,0.099403004999999
0.52211087055562,0.051034712218871,43.615811573647,0.099512499999999
0.52240434528373,0.051092339348482,43.550687745403,0.099622004999999
0.5226974225261,0.051149966159583,43.485720567706,0.099731519999999
0.52299010314329,0.051207592642017,43.420909516816,0.099841044999999
0.52328238799313,0.051265218785661,43.356254071262,0.099950579999999
0.52357427793077,0.051322844580428,43.291753711837,0.100060125
0.52386577380868,0.051380470016262,43.227407921578,0.10016968
0.52415687647666,0.051438095083145,43.163216185759,0.100279245
0.52444758678185,0.051495719771089,43.099177991878,0.10038882
0.52473790556872,0.051553344070141,43.035292829644,0.100498405
0.52502783367914,0.051610967970384,42.971560190966,0.100608
0.52531737195234,0.05166859146193,42.907979569942,0.100717605
0.52560652122492,0.051726214534927,42.844550462842,0.10082722
0.5258952823309,0.051783837179556,42.781272368106,0.100936845
0.5261836561017,0.05184145938603,42.718144786323,0.10104648
0.52647164336617,0.051899081144596,42.655167220226,0.101156125
0.52675924495056,0.051956702445532,42.592339174675,0.10126578
0.5270464616786,0.05201432327915,42.529660156653,0.101375445
0.52733329437145,0.052071943635794,42.467129675247,0.10148512
0.52761974384774,0.05212956350584,42.404747241641,0.101594805
0.52790581092357,0.052187182879696,42.342512369104,0.1017045
0.52819149641254,0.052244801747803,42.280424572982,0.101814205
0.52847680112572,0.052302420100632,42.218483370678,0.10192392
0.52876172587171,0.052360037928688,42.156688281653,0.102033645
0.52904627145662,0.052417655222505,42.095038827405,0.10214338
0.52933043868407,0.052475271972652,42.033534531467,0.102253125
0.52961422835526,0.052532888169725,41.972174919387,0.10236288
0.52989764126888,0.052590503804354,41.910959518726,0.102472645
0.53018067822124,0.0526481188672,41.849887859041,0.10258242
0.53046334000617,0.052705733348953,41.788959471878,0.102692205
0.5307456274151,0.052763347240337,41.728173890761,0.102802
0.53102754123705,0.052820960532103,41.667530651181,0.102911805
0.53130908225865,0.052878573215034,41.607029290584,0.10302162
0.5315902512641,0.052936185279946,41.546669348368,0.103131445
0.53187104903526,0.052993796717681,41.486450365862,0.10324128
0.53215147635161,0.053051407519113,41.426371886324,0.103351125
0.53243153399026,0.053109017675147,41.366433454927,0.10346098
0.53271122272596,0.053166627176717,41.306634618753,0.103570845
0.53299054333115,0.053224236014786,41.246974926776,0.10368072
0.53326949657591,0.053281844180348,41.18745392986,0.103790605
0.53354808322801,0.053339451664426,41.128071180748,0.1039005
0.53382630405291,0.053397058458072,41.068826234043,0.104010405
0.53410415981375,0.053454664552369,41.009718646212,0.10412032
0.53438165127141,0.053512269938425,40.950747975566,0.104230245
0.53465877918446,0.053569874607383,40.891913782256,0.10434018
0.5349355443092,0.053627478550409,40.833215628259,0.104450125
0.53521194739966,0.053685081758703,40.774653077376,0.10456008
0.53548798920764,0.053742684223489,40.716225695212,0.104670045
0.53576367048266,0.053800285936024,40.657933049179,0.10478002
0.53603899197202,0.05385788688759,40.599774708474,0.104890005
0.5363139544208,0.053915487069499,40.541750244079,0.105
