d,ep,stress_yy,total_strain_yy
0,0,0,0
0,0,6.8797190688834,0.00010000499999996
0,0,13.758876406685,0.00020001999999997
0,0,20.637472210044,0.00030004499999992
0,0,27.515506675558,0.00040007999999991
0,0,34.392979999647,0.00050012499999996
0,0,41.269892378663,0.00060017999999995
0,0,48.146244008907,0.00070024499999988
0,0,55.022035086568,0.00080031999999997
0,0,61.897265807699,0.00090040499999988
0,0,68.771936368286,0.0010004999999998
0,0,75.646046964208,0.0011006050000001
0,0,82.519597791284,0.00120072
0,0,89.392589045164,0.0013008450000001
0,0,96.265020921448,0.0014009800000001
0,0,103.13689361571,0.0015011250000001
0,0,110.00820732331,0.00160128
0,0,116.87896223956,0.001701445
0,0,123.74915855968,0.0018016200000001
0,0,130.61879647882,0.001901805
0,0,137.48787619199,0.0020019999999999
0,0,144.35639789413,0.002102205
0,0,151.22436178007,0.0022024199999999
0,0,158.09176804461,0.002302645
0,0,164.9586168823,0.00240288
0,0,171.82490848776,0.0025031249999999
0,0,178.69064305547,0.0026033799999999
0,0,185.55582077975,0.002703645
0,0,192.42044185489,0.00280392
0,0,199.28450647504,0.0029042049999999
0,0,206.14801483432,0.0030044999999999
0,0,213.01096712673,0.0031048050000001
0,0,219.8733635461,0.0032051200000001
0,0,226.7352042863,0.0033054450000001
0,0,233.59648954101,0.00340578
0,0,240.45721950385,0.003506125
0,0,247.3173943683,0.0036064800000001
0,0,254.17701432781,0.0037068450000001
0,0,261.03607957571,0.00380722
0,0,267.89459030523,0.003907605
0,0,274.75254670952,0.004008
0,0,281.60994898159,0.004108405
0,0,288.46679731447,0.00420882
0,0,295.32309190096,0.004309245
0,0,302.17883293384,0.00440968
0,0,309.03402060575,0.0045101249999999
0,0,315.88865510935,0.0046105799999999
0,3.1362790300889e-05,319.51666031667,0.004711045
0,9.7549931077492e-05,319.56205353714,0.00481152
0,0.00016373052342964,319.60744224617,0.0049120049999999
0,0.00022990456865699,319.65282644462,0.0050124999999999
0,0.00029607206805886,319.69820613339,0.0051130050000001
0,0.00036223302293344,319.74358131341,0.0052135200000001
0,0.0004283874345793,319.78895198557,0.0053140450000001
0,0.0004945353042943,319.83431815073,0.0054145800000001
0,0.00056067663337608,319.8796798098,0.0055151250000001
0,0.00062681142312189,319.92503696369,0.00561568
0,0.00069293967482823,319.97038961329,0.005716245
0,0.00075906138979166,320.01573775949,0.0058168200000001
0,0.00082517656930806,320.0610814032,0.005917405
0,0.00089128521467318,320.10642054529,0.006018
0,0.00095738732718205,320.15175518668,0.0061186049999999
0,0.0010234829081297,320.19708532824,0.00621922
0,0.0010895719588104,320.24241097089,0.0063198449999999
0,0.0011556544805185,320.28773211551,0.0064204799999999
0,0.0012217304745473,320.33304876299,0.0065211249999999
0,0.0012877999421905,320.37836091422,0.0066217799999999
0,0.0013538628847407,320.42366857009,0.006722445
0,0.0014199193034906,320.46897173151,0.00682312
0,0.0014859691997321,320.51427039937,0.0069238049999999
0,0.0015520125747572,320.55956457454,0.0070244999999999
0,0.0016180494298573,320.60485425795,0.0071252049999999
0,0.0016840797663234,320.65013945046,0.0072259200000001
0,0.0017501035854459,320.69542015295,0.0073266450000001
0,0.0018161208885151,320.74069636634,0.0074273800000001
0,0.001882131676821,320.78596809151,0.0075281250000001
0,0.001948135951653,320.83123532935,0.0076288800000001
0,0.0020141337142998,320.87649808076,0.0077296450000001
0,0.0020801249660506,320.92175634661,0.00783042
0,0.0021461097081934,320.96701012781,0.007931205
0,0.0022120879420163,321.01225942525,0.008032
0,0.0022780596688069,321.05750423979,0.008132805
0,0.0023440248898522,321.10274457233,0.0082336199999999
0,0.0024099836064389,321.14798042379,0.008334445
0,0.0024759358198536,321.19321179503,0.0084352799999999
0,0.0025418815313822,321.23843868692,0.008536125
0,0.0026078207423103,321.28366110039,0.0086369799999999
0,0.0026737534539233,321.3288790363,0.008737845
0,0.002739679667506,321.37409249554,0.00883872
0,0.0028055993843428,321.41930147903,0.0089396049999999
0,0.0028715126057179,321.46450598759,0.0090404999999999
0,0.0029374193329151,321.50970602216,0.0091414049999999
0,0.0030033195672174,321.55490158363,0.0092423199999999
0,0.0030692133099083,321.60009267286,0.0093432450000001
0,0.0031351005622699,321.64527929071,0.00944418
0,0.0032009813255847,321.69046143813,0.009545125
0,0.0032668556011343,321.73563911595,0.00964608
0,0.0033327233902003,321.78081232509,0.009747045
0,0.0033985846940637,321.82598106642,0.0098480200000001
0,0.0034644395140052,321.87114534082,0.0099490050000001
0,0.0035302878513052,321.91630514919,0.01005
0,0.0035961297072435,321.96146049241,0.010151005
0,0.0036619650830998,322.00661137133,0.01025202
0,0.0037277939801529,322.05175778689,0.010353045
0,0.003793616399682,322.09689973993,0.01045408
0,0.0038594323429652,322.14203723135,0.010555125
0,0.0039252418112807,322.18717026202,0.01065618
0,0.0039910448059061,322.23229883287,0.010757245
0,0.0040568413281187,322.27742294468,0.01085832
0,0.0041226313791955,322.32254259843,0.010959405
0,0.0041884149604127,322.36765779497,0.0110605
0,0.0042541920730466,322.41276853518,0.011161605
0,0.004319962718373,322.45787481992,0.01126272
0,0.0043857268976673,322.50297665009,0.011363845
0,0.0044514846122046,322.54807402657,0.01146498
0,0.0045172358632593,322.59316695026,0.011566125
0,0.0045829806521057,322.63825542201,0.01166728
0,0.0046487189800177,322.6833394427,0.011768445
0,0.0047144508482687,322.72841901321,0.01186962
0,0.0047801762581321,322.77349413445,0.011970805
0,0.0048458952108804,322.81856480727,0.012072
0,0.0049116077077859,322.86363103255,0.012173205
0,0.0049773137501208,322.90869281117,0.01227442
0,0.0050430133391568,322.95375014399,0.012375645
0,0.0051087064761648,322.99880303194,0.01247688
0,0.0051743931624159,323.04385147587,0.012578125
0,0.0052400733991804,323.08889547662,0.01267938
0,0.0053057471877285,323.13393503511,0.012780645
0,0.0053714145293301,323.17897015223,0.01288192
0,0.0054370754252544,323.22400082879,0.012983205
0,0.0055027298767704,323.26902706575,0.0130845
0,0.0055683778851464,323.31404886395,0.013185805
0,0.0056340194516511,323.35906622422,0.01328712
0,0.0056996545775522,323.40407914749,0.013388445
0,0.0057652832641171,323.44908763465,0.01348978
0,0.0058309055126132,323.49409168651,0.013591125
0,0.0058965213243069,323.53909130401,0.01369248
0,0.0059621307004644,323.58408648799,0.013793845
0,0.0060277336423521,323.62907723931,0.01389522
0,0.0060933301512353,323.67406355888,0.013996605
0,0.0061589202283795,323.71904544757,0.014098
0,0.0062245038750494,323.76402290622,0.014199405
0,0.0062900810925096,323.80899593571,0.01430082
0,0.0063556518820241,323.85396453694,0.014402245
0,0.0064212162448567,323.89892871078,0.01450368
0,0.0064867741822709,323.94388845808,0.014605125
0,0.0065523256955295,323.98884377973,0.01470658
0,0.0066178707858952,324.03379467658,0.014808045
0,0.0066834094546303,324.07874114954,0.01490952
0,0.0067489417029965,324.12368319943,0.015011005
0,0.0068144675322557,324.16862082717,0.0151125
0,0.0068799869436687,324.21355403362,0.015214005
0,0.0069454999384963,324.25848281963,0.01531552
0,0.0070110065179988,324.30340718606,0.015417045
0,0.0070765066834364,324.34832713382,0.01551858
0,0.0071420004360687,324.39324266374,0.015620125
0,0.0072074877771551,324.43815377674,0.01572168
0,0.0072729687079542,324.48306047364,0.015823245
0,0.0073384432297249,324.52796275533,0.01592482
0,0.0074039113437252,324.57286062268,0.016026405
0,0.0074693730512128,324.61775407655,0.016128
0,0.0075348283534452,324.66264311782,0.016229605
8.0839194473771e-06,0.0076001967059959,324.69883274415,0.01633122
5.1351946298593e-05,0.0076652080991782,324.69716072073,0.016432845
0.00012941964176761,0.0077298663950487,324.65801602654,0.01653448
0.00024190122187622,0.0077941754687157,324.58179424827,0.016636125
0.0003884078949842,0.007858139224905,324.46889928104,0.01673778
0.00056854794101581,0.0079217615971665,324.31974317393,0.016839445
0.00078192616620382,0.0079850465533064,324.1347466627,0.01694112
0.0010281433847811,0.0080479981005479,323.91433968694,0.017042805
0.0013067959307368,0.0081106202903933,323.65896188521,0.0171445
0.0016174752023564,0.0081729172231588,323.3690630628,0.017246205
0.0019597672422177,0.0082348930521557,323.04510362653,0.01734792
0.0023332523550788,0.0082965519874926,322.68755498167,0.017449645
0.002737504765938,0.0083578982994795,322.29689988563,0.01755138
0.0031720923199926,0.0084189363216107,321.87363275467,0.017653125
0.0036365762264608,0.0084796704531144,321.41825991883,0.01775488
0.0041305108474748,0.0085401051610487,320.93129982194,0.017856645
0.0046534435331923,0.008600244981941,320.4132831634,0.01795842
0.0052049145040049,0.008660094522955,319.86475297888,0.018060205
0.0057844567803402,0.0087196584625849,319.28626465791,0.018162
0.0063915961602568,0.0087789415508729,318.67838589663,0.018263805
0.0070258512447078,0.0088379486091523,318.04169658462,0.01836562
0.0076867335101397,0.0088966845293174,317.37678862508,0.018467445
0.0083737474276253,0.0089551542726321,316.68426568858,0.01856928
0.0090863906276168,0.0090133628680819,315.96474290053,0.018671125
0.0098241541089528,0.0090713154102869,315.21884646398,0.01877298
0.010586522490673,0.0091290170569872,314.44721321847,0.018874845
0.011372974304605,0.0091864730261223,313.65049013819,0.01897672
0.01218298232698,0.0092436885925236,312.82933377068,0.019078605
0.013016013946463,0.0093006690842417,311.98440962035,0.0191805
0.013871531566401,0.0093574198785348,311.11639147925,0.019282405
0.014748993038477,0.0094139463975448,310.22596070961,0.01938432
0.015647852124987,0.0094702541036869,309.31380548194,0.019486245
0.016567558986976,0.0095263484947837,308.38061997313,0.01958818
0.017507560694888,0.0095822350989746,307.42710352953,0.019690125
0.018467301759056,0.0096379194694275,306.45395979943,0.01979208
0.019446224676495,0.0096934071788895,305.46189584069,0.019894045
0.020443770491089,0.0097487038141036,304.45162120785,0.01999602
0.021459379363993,0.0098038149701254,303.42384702437,0.020098005
0.022492491151073,0.0098587462445685,302.37928504511,0.0202
0.023542545984295,0.0099135032318123,301.31864671424,0.020302005
0.024608984854209,0.0099680915171988,300.24264222335,0.02040402
0.025691250190515,0.010022516671249,299.15197957492,0.020506045
0.02678878643798,0.010076784243927,298.04736365587,0.02060808
0.027901040625119,0.010130899758975,296.92949532541,0.020710125
0.029027462923022,0.010184868708348,295.79907052188,0.02081218
0.030167507192162,0.010238696546769,294.65677939223,0.020914245
0.031320631514834,0.010292388686428,293.50330544803,0.02101632
0.032486298711411,0.010345950491839,292.33932475138,0.021118405
0.033663976838486,0.010399387274886,291.16550513362,0.0212205
0.034853139667306,0.010452704290055,289.98250545003,0.021322605
0.0360532671412,0.010505906729889,288.79097487221,0.02142472
0.037263845810513,0.01055899972065,287.59155222084,0.021526845
0.038484369244219,0.010611988318233,286.38486534016,0.02162898
0.039714338417285,0.010664877504308,285.17153051561,0.021731125
0.040953262072995,0.010717672182715,283.95215193565,0.02183328
0.042200657059919,0.010770377176118,282.72732119852,0.021935445
0.043456048642882,0.01082299722291,281.49761686439,0.02203762
0.044718970788162,0.01087553697438,280.26360405265,0.022139805
0.045988966422413,0.01092800099214,279.02583408492,0.022242
0.047265587665831,0.010980393745811,277.78484417237,0.022344205
0.048548396039428,0.011032719610965,276.5411571477,0.02244642
0.049836962647115,0.011084982867317,275.2952812401,0.022548645
0.051130868332739,0.011137187697173,274.04770989273,0.02265088
0.052429703812809,0.011189338184111,272.798921621,0.022753125
0.053733069785579,0.011241438311906,271.54937991054,0.02285538
0.055040577017089,0.01129349196368,270.29953315346,0.022957645
0.056351846405023,0.011345502921275,269.04981462079,0.02305992
0.057666509021232,0.011397474864836,267.8006424699,0.023162205
0.058984206133828,0.011449411372603,266.55241978485,0.0232645
0.060304589209724,0.011501315920892,265.30553464772,0.023366805
0.061627319898668,0.011553191884262,264.06036023928,0.02346912
0.062952069999663,0.011605042535862,262.81725496702,0.023571445
0.064278521410886,0.011656871047935,261.57656261831,0.02367378
0.065606366063995,0.011708680492483,260.33861253739,0.023776125
0.066935305843891,0.011760473842073,259.10371982363,0.02387848
0.068265052494966,0.011812253970784,257.87218554966,0.023980845
0.069595327514778,0.011864023655268,256.6442969973,0.02408322
0.070925862036168,0.01191578557594,255.42032790953,0.024185605
0.072256396698693,0.011967542318264,254.20053875701,0.024288
0.073586681510486,0.012019296374134,252.98517701692,0.024390405
0.074916475701283,0.012071050143355,251.77447746317,0.02449282
0.076245547567505,0.012122805935185,250.56866246593,0.024595245
0.077573674310433,0.012174565969962,249.36794229931,0.02469768
0.078900641868047,0.012226332380783,248.17251545554,0.024800125
0.080226244741455,0.012278107215242,246.98256896459,0.02490258
0.081550285816692,0.012329892437214,245.79827871772,0.025005045
0.08287257618242,0.012381689928679,244.6198097941,0.02510752
0.084192934944444,0.012433501491573,243.44731678901,0.025210005
0.085511189037464,0.012485328849675,242.28094414295,0.0253125
0.086827173034827,0.012537173650506,241.12082647053,0.025415005
0.088140728956718,0.01258903746725,239.96708888839,0.02551752
0.089451706077477,0.012640921800678,238.81984734109,0.025620045
0.09075996073233,0.012692828081077,237.6792089246,0.02572258
0.092065356124155,0.012744757670189,236.54527220648,0.025825125
0.093367762130658,0.01279671186313,235.41812754218,0.02592768
0.09466705511236,0.012848691890314,234.29785738696,0.026030245
0.09596311772173,0.01290069891936,233.18453660293,0.02613282
0.09725583871382,0.012952734056978,232.07823276078,0.026235405
0.098545112758656,0.013004798350854,230.97900643591,0.026338
0.099830840255837,0.013056892791493,229.88691149829,0.026440605
0.10111292715129,0.013109018314053,228.80199539633,0.02654322
0.10239128475669,0.013161175800152,227.72429943401,0.026645845
0.10366582957155,0.01321336607964,226.65385904137,0.02674848
0.1049364831083,0.013265589932349,225.59070403803,0.026851125
0.10620317172038,0.013317848089811,224.53485888974,0.02695378
0.10746582643362,0.013370141236939,223.48634295786,0.027056445
0.10872438278086,0.013422470013683,222.44517074147,0.02715912
0.10997878064005,0.013474835016644,221.41135211256,0.027261805
0.11122896407584,0.013527236800654,220.38489254371,0.0273645
0.11247488118479,0.01357967588033,219.36579332879,0.027467205
0.11371648394413,0.013632152731574,218.35405179622,0.02756992
0.11495372806424,0.013684667793055,217.34966151537,0.027672645
0.11618657284482,0.013737221467638,216.35261249574,0.02777538
0.11741498103473,0.013789814123789,215.36289137914,0.027878125
0.11863891869561,0.013842446096934,214.38048162507,0.02798088
0.11985835506914,0.013895117690787,213.4053636893,0.028083645
0.12107326244804,0.013947829178633,212.4375151957,0.02818642
0.12228361605071,0.014000580804585,211.47691110169,0.028289205
0.12348939389959,0.014053372784796,210.52352385712,0.028392
0.124690576703,0.01410620530864,209.57732355703,0.028494805
0.12588714774074,0.01415907853985,208.63827808821,0.02859762
0.127079092753,0.014211992617633,207.70635326982,0.028700445
0.12826639983295,0.01426494765774,206.78151298819,0.02880328
0.1294490593226,0.014317943753503,205.86371932598,0.028906125
0.13062706371213,0.014370980976843,204.95293268587,0.02900898
0.13180040754247,0.014424059379243,204.04911190878,0.029111845
0.13296908731112,0.014477178992685,203.15221438711,0.02921472
0.13413310138119,0.01453033983056,202.26219617277,0.029317605
0.13529244989353,0.014583541888545,201.3790120805,0.0294205
0.13644713468187,0.014636785145451,200.50261578637,0.029523405
0.13759715919096,0.014690069564038,199.63295992183,0.02962632
0.13874252839763,0.014743395091802,198.76999616328,0.029729245
0.13988324873466,0.014796761661741,197.91367531747,0.02983218
0.14101932801739,0.014850169193081,197.06394740278,0.029935125
0.14215077537302,0.014903617591981,196.22076172659,0.03003808
0.14327760117261,0.01495710675222,195.38406695878,0.030141045
0.14439981696544,0.015010636555842,194.55381120166,0.03024402
0.14551743541605,0.015064206873791,193.72994205638,0.030347005
0.14663047024354,0.015117817566514,192.91240668585,0.03045
0.14773893616325,0.015171468484545,192.10115187457,0.030553005
0.14884284883069,0.01522515946906,191.29612408526,0.03065602
0.14994222478767,0.015278890352421,190.49726951247,0.030759045
0.15103708141059,0.015332660958687,189.70453413336,0.03086208
0.15212743686072,0.015386471104112,188.91786375575,0.030965125
0.15321331003649,0.015440320597621,188.13720406348,0.03106818
0.15429472052778,0.015494209241266,187.36250065928,0.031171245
0.155371688572,0.015548136830662,186.5936991052,0.03127432
0.15644423501202,0.015602103155414,185.8307449607,0.031377405
0.1575123812558,0.015656107999508,185.07358381865,0.0314805
0.15857614923779,0.015710151141708,184.322161339,0.031583605
0.15963556138184,0.015764232355918,183.57642328065,0.03168672
0.16069064056581,0.015818351411537,182.83631553123,0.031789845
0.16174141008762,0.015872508073801,182.1017841351,0.03189298
0.16278789363277,0.015926702104103,181.37277531961,0.031996125
0.16383011524333,0.015980933260302,180.6492355196,0.03209928
0.16486809928822,0.016035201297024,179.93111140039,0.032202445
0.16590187043483,0.01608950596594,179.21834987918,0.03230562
0.16693145362196,0.016143847016038,178.51089814503,0.032408805
0.1679568740339,0.016198224193884,177.80870367743,0.032512
0.16897815707572,0.016252637243862,177.11171426358,0.032615205
0.16999532834972,0.016307085908416,176.41987801437,0.03271842
0.17100841363291,0.016361569928269,175.73314337923,0.032821645
0.17201743885561,0.016416089042641,175.05145915978,0.03292488
0.17302243008097,0.016470642989448,174.37477452242,0.033028125
0.17402341348554,0.016525231505501,173.70303900997,0.03313138
0.17502041534073,0.016579854326687,173.03620255223,0.033234645
0.1760134619952,0.016634511188146,172.37421547565,0.03333792
0.17700257985805,0.016689201824439,171.71702851215,0.033441205
0.17798779538292,0.016743925969706,171.06459280712,0.0335445
0.17896913505281,0.016798683357816,170.41685992658,0.033647805
0.17994662536572,0.016853473722513,169.77378186363,0.03375112
0.18092029282098,0.016908296797549,169.13531104419,0.033854445
0.18189016390635,0.016963152316816,168.50140033212,0.03395778
0.18285626508568,0.017018040014465,167.87200303354,0.034061125
0.18381862278734,0.017072959625024,167.24707290082,0.03416448
0.18477726339322,0.017127910883507,166.62656413576,0.034267845
0.1857322132283,0.017182893525518,166.01043139238,0.03437122
0.18668349855082,0.017237907287348,165.39862977917,0.034474605
0.18763114554305,0.017292951906068,164.79111486083,0.034578
0.18857518030245,0.017348027119616,164.18784265965,0.034681405
0.18951562883348,0.01740313266688,163.58876965638,0.03478482
0.1904525170398,0.017458268287774,162.99385279074,0.034888245
0.19138587071695,0.017513433723311,162.40304946161,0.03499168
0.19231571554552,0.017568628715673,161.81631752679,0.035095125
0.19324207708465,0.017623853008273,161.23361530246,0.03519858
0.19416498076602,0.017679106345817,160.65490156235,0.035302045
0.1950844518882,0.017734388474357,160.08013553664,0.03540552
0.19600051561136,0.017789699141347,159.50927691054,0.035509005
0.19691319695232,0.017845038095693,158.94228582264,0.0356125
0.19782252078,0.017900405087793,158.37912286304,0.035716005
0.19872851181109,0.017955799869585,157.81974907127,0.03581952
0.19963119460616,0.018011222194582,157.26412593396,0.035923045
0.20053059356595,0.018066671817913,156.71221538237,0.03602658
0.20142673292801,0.018122148496352,156.16397978971,0.036130125
0.20231963676357,0.018177651988352,155.61938196833,0.03623368
0.2032093289747,0.018233182054071,155.07838516673,0.036337245
0.20409583329167,0.018288738455402,154.54095306646,0.03644082
0.20497917327062,0.01834432095599,154.00704977885,0.036544405
0.20585937229135,0.018399929321259,153.4766398417,0.036648
0.20673645355543,0.01845556331843,152.94968821574,0.036751605
0.2076104400844,0.018511222716534,152.42616028113,0.03685522
0.20848135471828,0.018566907286435,151.90602183378,0.036958845
0.20934922011416,0.018622616800836,151.38923908164,0.03706248
0.21021405874503,0.018678351034295,150.87577864085,0.037166125
0.21107589289875,0.018734109763235,150.3656075319,0.03726978
0.21193474467715,0.018789892765948,149.85869317573,0.037373445
0.21279063599539,0.018845699822609,149.35500338968,0.03747712
0.2136435885813,0.018901530715276,148.85450638353,0.037580805
0.21449362397498,0.018957385227898,148.35717075542,0.0376845
0.21534076352848,0.019013263146314,147.86296548774,0.037788205
0.21618502840559,0.019069164258258,147.37185994301,0.03789192
0.2170264395818,0.019125088353359,146.88382385977,0.037995645
0.21786501784429,0.019181035223139,146.39882734836,0.03809938
0.21870078379211,0.019237004661014,145.91684088679,0.038203125
0.21953375783635,0.019292996462288,145.43783531651,0.03830688
0.22036396020054,0.019349010424155,144.96178183831,0.038410645
0.221191410921,0.019405046345687,144.48865200797,0.03851442
0.22201612984736,0.019461104027838,144.01841773223,0.038618205
0.22283813664312,0.01951718327343,143.5510512645,0.038722
0.22365745078632,0.019573283887152,143.08652520072,0.038825805
0.22447409157023,0.019629405675549,142.62481247518,0.03892962
0.22528807810413,0.019685548447017,142.16588635637,0.039033445
0.22609942931416,0.019741712011793,141.70972044284,0.03913728
0.22690816394419,0.019797896181945,141.25628865909,0.039241125
0.22771430055682,0.019854100771366,140.80556525143,0.03934498
0.22851785753431,0.019910325595759,140.35752478397,0.039448845
0.22931885307969,0.019966570472629,139.91214213448,0.03955272
0.2301173052178,0.020022835221274,139.46939249044,0.039656605
0.23091323179646,0.02007911966277,139.02925134498,0.0397605
0.23170665048761,0.020135423619959,138.59169449294,0.039864405
0.2324975787885,0.020191746917441,138.15669802694,0.03996832
0.23328603402299,0.020248089381558,137.72423833341,0.040072245
0.23407203334274,0.020304450840384,137.29429208877,0.04017618
0.23485559372854,0.020360831123706,136.86683625557,0.040280125
0.23563673199162,0.020417230063019,136.44184807866,0.04038408
0.236415464775,0.020473647491508,136.01930508144,0.040488045
0.23719180855484,0.020530083244033,135.5991850621,0.04059202
0.23796577964181,0.020586537157117,135.18146608993,0.040696005
0.23873739418254,0.020643009068934,134.76612650165,0.0408
0.23950666816096,0.020699498819291,134.35314489781,0.040904005
0.24027361739978,0.020756006249614,133.94250013913,0.04100802
0.24103825756193,0.020812531202937,133.53417134303,0.041112045
0.24180060415198,0.020869073523884,133.12813788008,0.04121608
0.24256067251763,0.020925633058656,132.72437937053,0.041320125
0.24331847785115,0.020982209655013,132.32287568089,0.04142418
0.24407403519087,0.021038803162266,131.92360692053,0.041528245
0.24482735942268,0.021095413431256,131.52655343832,0.04163232
0.24557846528148,0.021152040314339,131.13169581936,0.041736405
0.24632736735268,0.021208683665376,130.73901488165,0.0418405
0.24707408007369,0.021265343339715,130.34849167289,0.041944605
0.24781861773542,0.021322019194173,129.96010746731,0.04204872
0.24856099448376,0.021378711087028,129.57384376247,0.042152845
0.24930122432107,0.021435418877998,129.18968227621,0.04225698
0.25003932110766,0.021492142428228,128.80760494353,0.042361125
0.2507752985633,0.021548881600278,128.42759391358,0.04246528
0.25150917026867,0.021605636258101,128.04963154668,0.042569445
0.25224094966687,0.021662406267036,127.67370041133,0.04267362
0.25297065006488,0.021719191493788,127.29978328138,0.042777805
0.25369828463501,0.021775991806417,126.92786313307,0.042882
0.2544238664164,0.02183280707432,126.55792314224,0.042986205
0.25514740831644,0.021889637168216,126.18994668153,0.04309042
0.25586892311225,0.021946481960137,125.82391731765,0.043194645
0.2565884234521,0.022003341323405,125.45981880862,0.04329888
0.25730592185685,0.022060215132628,125.09763510111,0.043403125
0.25802143072138,0.022117103263673,124.73735032781,0.04350738
0.258734962316,0.022174005593666,124.3789488048,0.043611645
0.25944652878788,0.022230922000964,124.02241502902,0.04371592
0.26015614216239,0.022287852365152,123.6677336757,0.043820205
0.26086381434458,0.022344796567023,123.31488959591,0.0439245
0.26156955712047,0.022401754488566,122.96386781402,0.044028805
0.26227338215846,0.022458726012952,122.6146535254,0.04413312
0.26297530101072,0.02251571102452,122.26723209392,0.044237445
0.26367532511445,0.022572709408764,121.92158904967,0.04434178
0.2643734657933,0.02262972105232,121.57771008659,0.044446125
0.26506973425864,0.022686745842951,121.23558106024,0.04455048
0.26576414161092,0.022743783669536,120.89518798549,0.044654845
0.26645669884092,0.022800834422057,120.55651703435,0.04475922
0.26714741683108,0.022857897991582,120.21955453376,0.044863605
0.26783630635677,0.022914974270257,119.88428696347,0.044968
0.26852337808752,0.022972063151292,119.55070095385,0.045072405
0.26920864258834,0.023029164528946,119.21878328389,0.04517682
0.2698921103209,0.023086278298519,118.88852087907,0.045281245000001
0.27057379164479,0.023143404356334,118.55990080939,0.04538568
0.27125369681874,0.02320054259973,118.23291028733,0.045490125
0.27193183600182,0.023257692927047,117.90753666591,0.04559458
0.2726082192546,0.023314855237614,117.58376743675,0.045699045
0.27328285654039,0.02337202943174,117.26159022816,0.04580352
0.27395575772636,0.023429215410699,116.94099280326,0.045908005
0.27462693258472,0.023486413076718,116.62196305812,0.0460125
0.27529639079384,0.023543622332971,116.30448901997,0.046117005
0.27596414193941,0.02360084308356,115.98855884538,0.04622152
0.27663019551553,0.023658075233509,115.67416081851,0.046326045
0.27729456092582,0.023715318688753,115.36128334934,0.04643058
0.27795724748452,0.023772573356124,115.049914972,0.046535125
0.27861826441759,0.023829839143341,114.74004434306,0.04663968
0.27927762086373,0.023887115959002,114.43166023987,0.046744245
0.27993532587546,0.02394440371257,114.12475155891,0.04684882
0.28059138842019,0.024001702314364,113.8193073142,0.046953405000001
0.28124581738119,0.024059011675549,113.51531663572,0.047058
0.28189862155868,0.024116331708127,113.21276876784,0.047162605
0.28254980967076,0.024173662324921,112.91165306775,0.04726722
0.28319939035448,0.024231003439573,112.611959004,0.047371845
0.28384737216677,0.02428835496653,112.31367615497,0.04747648
0.28449376358542,0.024345716821034,112.01679420743,0.047581125
0.28513857301006,0.024403088919112,111.72130295506,0.04768578
0.28578180876308,0.02446047117757,111.42719229705,0.047790445
0.2864234790906,0.024517863513978,111.1344522367,0.04789512
0.28706359216334,0.024575265846668,110.84307288002,0.047999805
0.28770215607759,0.024632678094718,110.55304443439,0.0481045
0.28833917885606,0.024690100177945,110.26435720722,0.048209205
0.28897466844883,0.024747532016899,109.97700160462,0.04831392
0.28960863273415,0.024804973532851,109.6909681301,0.048418645
0.29024107951938,0.024862424647786,109.40624738331,0.04852338
0.29087201654181,0.024919885284392,109.12283005877,0.048628125
0.29150145146949,0.024977355366055,108.84070694463,0.04873288
0.29212939190212,0.025034834816848,108.55986892145,0.048837645
0.2927558453718,0.025092323561523,108.280306961,0.04894242
0.29338081934391,0.025149821525506,108.00201212508,0.049047205
0.29400432121787,0.025207328634882,107.72497556435,0.049152000000001
0.29462635832795,0.025264844816395,107.44918851717,0.049256805
0.29524693794405,0.025322369997436,107.17464230851,0.04936162
0.29586606727247,0.025379904106035,106.90132834877,0.049466445000001
0.29648375345666,0.025437447070853,106.62923813276,0.04957128
0.297100003578,0.025494998821179,106.35836323855,0.049676125
0.2977148246565,0.025552559286917,106.08869532648,0.04978098
0.29832822365158,0.02561012839858,105.82022613802,0.049885845
0.29894020746275,0.025667706087285,105.55294749484,0.04999072
0.29955078293036,0.025725292284745,105.28685129772,0.050095605
0.30015995683627,0.02578288692326,105.02192952558,0.0502005
0.30076773590454,0.025840489935711,104.75817423448,0.050305405
0.30137412680219,0.025898101255557,104.49557755668,0.05041032
0.30197913613975,0.025955720816819,104.23413169963,0.050515245
0.30258277047203,0.026013348554085,103.9738289451,0.05062018
0.30318503629876,0.026070984402494,103.71466164818,0.050725125000001
0.30378594006518,0.026128628297734,103.45662223641,0.050830080000001
0.30438548816276,0.026186280176034,103.19970320888,0.050935045000001
0.30498368692976,0.026243939974158,102.94389713531,0.05104002
0.3055805426519,0.0263016076294,102.68919665523,0.051145005
0.30617606156298,0.026359283079576,102.43559447706,0.05125
0.30677024984544,0.026416966263019,102.1830833773,0.051355005
0.30736311363099,0.026474657118573,101.9316561997,0.05146002
0.30795465900122,0.026532355585586,101.6813058544,0.051565045
0.30854489198814,0.026590061603905,101.43202531716,0.05167008
0.30913381857477,0.026647775113871,101.18380762854,0.051775125
0.30972144469573,0.02670549605631,100.93664589311,0.05188018
0.31030777623775,0.026763224372534,100.6905332787,0.051985245
0.31089281904029,0.026820960004327,100.4454630156,0.05209032
0.31147657889601,0.026878702893947,100.20142839583,0.052195405
0.31205906155136,0.026936452984115,99.958422772401,0.0523005
0.31264027270709,0.026994210218013,99.716439558572,0.052405605
0.31322021801878,0.02705197453928,99.475472227135,0.05251072
0.31379890309733,0.027109745892001,99.235514309712,0.052615845
0.31437633350952,0.027167524220709,98.996559396043,0.052720980000001
0.31495251477845,0.027225309470373,98.758601133299,0.052826125000001
0.31552745238407,0.027283101586401,98.521633225427,0.052931280000001
0.31610115176369,0.027340900514626,98.285649432436,0.053036445000001
0.3166736183124,0.027398706201308,98.050643569778,0.053141620000001
0.3172448573836,0.027456518593129,97.816609507681,0.053246805000001
0.31781487428943,0.027514337637184,97.583541170504,0.053352
0.31838367430128,0.027572163280978,97.351432536113,0.053457205
0.31895126265018,0.027629995472424,97.120277635252,0.05356242
0.31951764452731,0.027687834159837,96.890070550942,0.053667645
0.32008282508443,0.027745679291927,96.66080541786,0.05377288
0.32064680943427,0.027803530817799,96.432476421759,0.053878125
0.32120960265103,0.027861388686945,96.205077798858,0.05398338
0.32177120977077,0.027919252849242,95.978603835288,0.054088645
0.32233163579185,0.027977123254945,95.753048866502,0.05419392
0.32289088567529,0.028034999854688,95.528407276719,0.054299205
0.32344896434526,0.028092882599475,95.304673498372,0.0544045
0.32400587668943,0.028150771440677,95.081842011553,0.054509805000001
0.32456162755938,0.028208666330029,94.85990734348,0.054615120000001
0.32511622177101,0.028266567219626,94.638864067953,0.054720445000001
0.32566966410489,0.028324474061919,94.41870680485,0.054825780000001
0.32622195930669,0.028382386809711,94.199430219591,0.054931125000001
0.3267731120875,0.028440305416151,93.981029022631,0.055036480000001
0.32732312712428,0.028498229834736,93.763497968969,0.055141845
0.32787200906015,0.028556160019301,93.54683185763,0.055247220000001
0.32841976250478,0.028614095924019,93.331025531201,0.055352605
0.32896639203479,0.028672037503396,93.116073875327,0.055458000000001
0.32951190219403,0.028729984712269,92.901971818247,0.055563405
0.33005629749398,0.0287879375058,92.688714330322,0.055668820000001
0.33059958241407,0.028845895839475,92.47629642357,0.055774245
0.33114176140204,0.028903859669099,92.264713151206,0.05587968
0.33168283887424,0.028961828950794,92.053959607209,0.055985125
0.332222819216,0.029019803640994,91.844030925852,0.05609058
0.33276170678194,0.029077783696444,91.634922281283,0.056196045
0.33329950589626,0.029135769074192,91.426628887081,0.05630152
0.33383622085311,0.029193759731594,91.219145995845,0.056407005
0.33437185591689,0.029251755626302,91.012468898753,0.056512500000001
0.33490641532251,0.029309756716268,90.806592925159,0.056618005000001
0.33543990327576,0.029367762959735,90.601513442185,0.056723520000001
0.33597232395358,0.029425774315239,90.397225854313,0.056829045000001
0.33650368150436,0.029483790741604,90.193725602983,0.056934580000001
0.33703398004822,0.029541812197937,89.991008166207,0.057040125000001
0.33756322367734,0.029599838643629,89.789069058175,0.057145680000001
0.33809141645618,0.02965787003835,89.587903828875,0.057251245000001
0.33861856242184,0.029715906342043,89.387508063722,0.057356820000001
0.33914466558427,0.02977394751493,89.187877383165,0.057462405000001
0.33966972992658,0.0298319935175,88.989007442341,0.057568
0.34019375940532,0.029890044310511,88.790893930702,0.057673605
0.34071675795069,0.029948099854987,88.593532571653,0.05777922
0.3412387294669,0.030006160112214,88.396919122206,0.057884845
0.34175967783232,0.030064225043737,88.20104937263,0.05799048
0.34227960689984,0.030122294611361,88.005919146098,0.058096125
0.34279852049704,0.030180368777145,87.811524298357,0.05820178
0.3433164224265,0.0302384475034,87.617860717396,0.058307445000001
0.34383331646601,0.030296530752686,87.424924323092,0.058413120000001
0.34434920636884,0.030354618487813,87.232711066906,0.058518805000001
0.34486409586397,0.030412710671833,87.041216931559,0.058624500000001
0.34537798865631,0.030470807268045,86.850437930697,0.058730205000001
0.34589088842698,0.030528908239983,86.66037010859,0.058835920000001
0.3464027988335,0.030587013551423,86.471009539818,0.058941645000001
0.34691372351004,0.030645123166375,86.282352328967,0.059047380000001
0.34742366606762,0.030703237049083,86.094394610314,0.059153125000001
0.34793263009439,0.030761355164021,85.907132547552,0.059258880000001
0.34844061915579,0.030819477475894,85.720562333467,0.059364645000001
0.3489476367948,0.030877603949633,85.534680189672,0.059470420000001
0.34945368653214,0.030935734550391,85.349482366294,0.059576205
0.3499587718665,0.030993869243548,85.164965141717,0.059682000000001
0.35046289627474,0.0310520079947,84.98112482228,0.059787805
0.35096606321209,0.031110150769664,84.797957742009,0.059893620000001
0.35146827611236,0.031168297534473,84.615460262343,0.059999445000001
0.35196953838815,0.031226448255373,84.433628771866,0.060105280000001
0.35246985343104,0.031284602898822,84.252459686027,0.060211125000001
0.35296922461179,0.03134276143149,84.071949446903,0.060316980000001
0.35346765528053,0.031400923820254,83.892094522912,0.060422845000001
0.35396514876698,0.031459090032198,83.712891408566,0.060528720000001
0.35446170838057,0.031517260034608,83.534336624224,0.060634605000001
0.35495733741072,0.031575433794976,83.35642671583,0.060740500000001
0.35545203912696,0.031633611280992,83.179158254671,0.060846405000001
0.35594581677913,0.031691792460547,83.00252783713,0.060952320000001
0.35643867359756,0.031749977301726,82.826532084451,0.061058245000001
0.35693061279326,0.031808165772812,82.651167642492,0.061164180000001
0.35742163755809,0.031866357842279,82.476431181488,0.061270125000001
0.35791175106493,0.031924553478796,82.30231939583,0.061376080000001
0.35840095646784,0.031982752651219,82.128829003821,0.061482045000001
0.35888925690226,0.032040955328593,81.955956747457,0.061588020000001
0.35937665548516,0.032099161480149,81.783699392199,0.061694005000001
0.3598631553152,0.032157371075304,81.612053726749,0.061800000000001
0.3603487594729,0.032215584083658,81.441016562839,0.061906005000001
0.36083347102083,0.032273800474992,81.270584735002,0.06201202
0.36131729300371,0.032332020219267,81.100755100369,0.062118045000001
0.36180022844862,0.032390243286623,80.931524538451,0.062224080000001
0.36228228036514,0.032448469647376,80.762889950928,0.062330125000001
0.3627634517455,0.032506699272017,80.594848261451,0.062436180000001
0.36324374556473,0.032564932131212,80.42739641543,0.062542245000001
0.36372316478082,0.032623168195799,80.26053137983,0.062648320000001
0.36420171233487,0.032681407436785,80.094250142984,0.062754405000001
0.36467939115123,0.032739649825348,79.928549714381,0.062860500000001
0.36515620413764,0.032797895332834,79.763427124482,0.062966605000001
0.3656321541854,0.032856143930752,79.59887942452,0.063072720000001
0.36610724416948,0.032914395590781,79.434903686313,0.063178845000001
0.36658147694868,0.032972650284759,79.271497002077,0.063284980000001
0.36705485536577,0.033030907984688,79.108656484237,0.063391125000001
0.3675273822476,0.033089168662731,78.946379265247,0.063497280000001
0.36799906040528,0.03314743229121,78.7846624974,0.063603445000001
0.36846989263429,0.033205698842603,78.623503352661,0.063709620000001
0.36893988171459,0.033263968289548,78.46289902248,0.063815805
0.3694090304108,0.033322240604836,78.302846717613,0.063922000000001
0.3698773414723,0.033380515761412,78.143343667963,0.064028205000001
0.37034481763336,0.033438793732376,77.984387122391,0.064134420000001
0.37081146161325,0.033497074490975,77.825974348557,0.064240645000001
0.37127727611642,0.033555358010611,77.668102632757,0.064346880000001
0.37174226383257,0.033613644264833,77.510769279743,0.064453125000001
0.37220642743677,0.033671933227335,77.353971612562,0.064559380000001
0.37266976958965,0.033730224871963,77.197706972406,0.064665645000001
0.37313229293742,0.033788519172703,77.041972718439,0.064771920000001
0.37359400011208,0.033846816103688,76.88676622764,0.064878205000001
0.37405489373147,0.033905115639193,76.732084894653,0.064984500000001
0.37451497639942,0.033963417753635,76.577926131625,0.065090805000001
0.37497425070587,0.034021722421571,76.424287368058,0.065197120000001
0.37543271922696,0.034080029617699,76.271166050647,0.065303445000001
0.37589038452513,0.034138339316853,76.118559643148,0.065409780000001
0.3763472491493,0.034196651494006,75.966465626208,0.065516125000001
0.37680331563488,0.034254966124266,75.814881497236,0.065622480000001
0.37725858650397,0.034313283182877,75.663804770249,0.065728845000001
0.37771306426541,0.034371602645217,75.513232975727,0.065835220000001
0.3781667514149,0.034429924486794,75.363163660483,0.065941605000001
0.37861965043512,0.034488248683252,75.213594387501,0.066048000000001
0.37907176379581,0.034546575210363,75.064522735822,0.066154405000001
0.37952309395388,0.03460490404403,74.915946300387,0.066260820000001
0.37997364335353,0.034663235160284,74.767862691909,0.066367245000001
0.38042341442633,0.034721568535283,74.620269536742,0.066473680000001
0.38087240959132,0.034779904145314,74.47316447674,0.066580125000001
0.38132063125511,0.034838241966788,74.326545169131,0.066686580000001
0.38176808181199,0.03489658197624,74.180409286381,0.066793045000001
0.382214763644,0.034954924150331,74.034754516072,0.066899520000001
0.38266067912106,0.035013268465844,73.889578560774,0.067006005000001
0.38310583060104,0.035071614899682,73.744879137911,0.067112500000001
0.38355022042983,0.035129963428871,73.600653979646,0.067219005000001
0.38399385094151,0.035188314030557,73.456900832751,0.067325520000001
0.38443672445834,0.035246666682003,73.313617458485,0.067432045000001
0.38487884329093,0.035305021360593,73.170801632479,0.067538580000001
0.3853202097383,0.035363378043826,73.02845114461,0.067645125000001
0.38576082608795,0.035421736709319,72.886563798883,0.067751680000001
0.38620069461598,0.035480097334803,72.745137413322,0.067858245000001
0.38663981758716,0.035538459898125,72.604169819841,0.067964820000001
0.38707819725501,0.035596824377246,72.463658864141,0.068071405000001
0.38751583586189,0.035655190750237,72.323602405589,0.068178000000001
0.38795273563911,0.035713558995284,72.183998317106,0.068284605000001
0.38838889880695,0.035771929090684,72.044844485067,0.068391220000001
0.3888243275748,0.035830301014844,71.906138809171,0.068497845
0.38925902414123,0.035888674746279,71.767879202351,0.068604480000001
0.38969299069405,0.035947050263615,71.630063590654,0.068711125
0.3901262294104,0.036005427545586,71.49268991314,0.06881778
0.39055874245683,0.03606380657103,71.355756121774,0.068924445000001
0.39099053198938,0.036122187318897,71.219260181327,0.06903112
0.39142160015366,0.036180569768236,71.083200069259,0.069137805
0.39185194908491,0.036238953898207,70.947573775635,0.0692445
0.3922815809081,0.03629733968807,70.812379303007,0.069351205
0.39271049773797,0.036355727117189,70.677614666323,0.06945792
0.39313870167914,0.036414116165033,70.543277892827,0.069564645
0.39356619482618,0.03647250681117,70.409367021959,0.06967138
0.39399297926365,0.036530899035271,70.275880105253,0.069778125
0.3944190570662,0.036589292817105,70.142815206252,0.069884880000001
0.39484443029864,0.036647688136544,70.010170400399,0.069991645
0.395269101016,0.036706084973557,69.877943774957,0.070098420000001
0.3956930712636,0.036764483308211,69.746133428897,0.070205205
0.39611634307713,0.036822883120672,69.614737472826,0.070312
0.39653891848271,0.036881284391201,69.483754028883,0.070418805000001
0.39696079949695,0.036939687100156,69.353181230647,0.070525620000001
0.39738198812705,0.036998091227992,69.22301722305,0.070632445000001
0.39780248637083,0.037056496755257,69.093260162294,0.070739280000001
0.39822229621679,0.037114903662593,68.963908215758,0.070846125
0.39864141964422,0.037173311930738,68.834959561903,0.07095298
0.39905985862324,0.037231721540519,68.706412390196,0.071059845000001
0.39947761511483,0.037290132472859,68.578264901025,0.07116672
0.39989469107095,0.03734854470877,68.450515305603,0.071273605
0.40031108843459,0.037406958229357,68.323161825899,0.0713805
0.40072680913979,0.037465373015814,68.196202694545,0.071487405
0.40114185511175,0.037523789049425,68.069636154751,0.07159432
0.40155622826686,0.037582206311563,67.943460460232,0.071701245
0.4019699305128,0.037640624783689,67.817673875128,0.07180818
0.40238296374852,0.037699044447353,67.692274673912,0.071915125
0.40279532986441,0.037757465284193,67.567261141323,0.07202208
0.40320703074227,0.037815887275931,67.442631572285,0.072129045
0.4036180682554,0.037874310404377,67.318384271817,0.07223602
0.40402844426865,0.037932734651427,67.194517554979,0.072343005
0.40443816063849,0.03799115999906,67.071029746778,0.07245
0.40484721921307,0.038049586429341,66.947919182096,0.072557005
0.40525562183224,0.038108013924419,66.825184205617,0.07266402
0.40566337032765,0.038166442466525,66.702823171756,0.072771045
0.40607046652278,0.038224872037974,66.580834444581,0.07287808
0.406476912233,0.038283302621161,66.459216397738,0.072985125
0.40688270926561,0.038341734198566,66.337967414389,0.07309218
0.40728785941992,0.038400166752748,66.217085887129,0.073199245
0.4076923644873,0.038458600266346,66.096570217923,0.07330632
0.4080962262512,0.03851703472208,65.976418818033,0.073413405
0.40849944648722,0.038575470102749,65.85663010795,0.0735205
0.4089020269632,0.038633906391233,65.737202517323,0.073627605
0.4093039694392,0.038692343570487,65.618134484895,0.07373472
0.40970527566761,0.038750781623547,65.499424458427,0.073841845
0.41010594739316,0.038809220533524,65.381070894646,0.07394898
0.410505986353,0.038867660283608,65.263072259166,0.074056125
0.41090539427673,0.038926100857065,65.145427026419,0.07416328
0.41130417288645,0.038984542237235,65.028133679611,0.074270445
0.41170232389682,0.039042984407536,64.911190710632,0.07437762
0.41209984901509,0.039101427351461,64.794596620012,0.074484805
0.41249674994118,0.039159871052574,64.678349916846,0.074592
0.41289302836767,0.039218315494518,64.562449118735,0.074699205
0.41328868597992,0.039276760661006,64.446892751727,0.07480642
0.41368372445605,0.039335206535826,64.331679350246,0.074913645
0.41407814546703,0.039393653102836,64.216807457049,0.07502088
0.4144719506767,0.03945210034597,64.102275623141,0.075128125
0.41486514174181,0.039510548249231,63.988082407739,0.07523538
0.41525772031212,0.039568996796694,63.874226378195,0.075342645
0.41564968803036,0.039627445972505,63.760706109949,0.07544992
0.41604104653234,0.039685895760881,63.647520186461,0.075557205
0.41643179744697,0.039744346146106,63.534667199163,0.0756645
0.41682194239628,0.039802797112538,63.422145747391,0.075771805
0.41721148299551,0.0398612486446,63.309954438342,0.07587912
0.41760042085313,0.039919700726787,63.198091887003,0.075986445
0.41798875757086,0.039978153343659,63.086556716105,0.07609378
0.41837649474375,0.040036606479847,62.975347556066,0.076201125
0.41876363396018,0.040095060120046,62.864463044934,0.07630848
0.41915017680196,0.040153514249022,62.753901828331,0.076415845
0.4195361248443,0.040211968851604,62.643662559409,0.07652322
0.4199214796559,0.040270423912688,62.533743898783,0.076630605
0.42030624279897,0.040328879417238,62.424144514488,0.076738
0.42069041582928,0.04038733535028,62.314863081926,0.076845405
0.42107400029619,0.040445791696907,62.205898283807,0.07695282
0.4214569977427,0.040504248442277,62.097248810104,0.077060245
0.42183940970545,0.04056270557161,61.988913358005,0.07716768
0.42222123771483,0.040621163070192,61.88089063185,0.077275125
0.42260248329495,0.040679620923372,61.773179343093,0.07738258
0.42298314796372,0.04073807911656,61.665778210246,0.077490045
0.42336323323285,0.040796537635231,61.558685958832,0.07759752
0.42374274060794,0.040854996464922,61.451901321337,0.077705005
0.42412167158845,0.04091345559123,61.345423037159,0.0778125
0.42450002766781,0.040971914999816,61.239249852563,0.077920005
0.42487781033337,0.041030374676402,61.133380520629,0.07802752
0.42525502106653,0.041088834606767,61.027813801208,0.078135045
0.42563166134271,0.041147294776756,60.922548460879,0.07824258
0.42600773263139,0.041205755172271,60.817583272888,0.078350125
0.42638323639619,0.041264215779272,60.712917017126,0.07845768
0.42675817409484,0.041322676583784,60.608548480062,0.078565245
0.42713254717928,0.041381137571885,60.504476454703,0.07867282
0.42750635709563,0.041439598729715,60.400699740557,0.078780405
0.42787960528428,0.041498060043472,60.297217143581,0.078888
0.4282522931799,0.041556521499411,60.194027476142,0.078995605
0.42862442221145,0.041614983083846,60.091129556965,0.07910322
0.42899599380226,0.041673444783148,59.9885222111,0.079210845
0.42936700937002,0.041731906583744,59.88620426987,0.07931848
0.42973747032685,0.041790368472119,59.784174570838,0.079426125
0.4301073780793,0.041848830434813,59.682431957755,0.07953378
0.43047673402838,0.041907292458424,59.580975280524,0.079641445
0.43084553956965,0.041965754529604,59.479803395157,0.07974912
0.43121379609316,0.04202421663506,59.378915163732,0.079856805
0.43158150498357,0.042082678761556,59.278309454357,0.0799645
0.43194866762011,0.04214114089591,59.177985141122,0.080072205
0.43231528537665,0.042199603024994,59.077941104068,0.08017992
0.43268135962173,0.042258065135734,58.978176229138,0.080287645
0.43304689171857,0.042316527215112,58.878689408145,0.08039538
0.43341188302512,0.042374989250159,58.779479538728,0.080503125
0.43377633489409,0.042433451227964,58.680545524314,0.08061088
0.43414024867294,0.042491913135667,58.581886274082,0.080718645
0.43450362570397,0.04255037496046,58.48350070292,0.08082642
0.43486646732432,0.042608836689588,58.385387731393,0.080934205
0.43522877486596,0.042667298310349,58.287546285702,0.081042
0.43559054965581,0.042725759810091,58.189975297644,0.081149805
0.43595179301568,0.042784221176214,58.092673704583,0.08125762
0.43631250626234,0.04284268239617,57.995640449404,0.081365445
0.43667269070755,0.042901143457462,57.898874480482,0.08147328
0.43703234765807,0.042959604347642,57.802374751646,0.081581125
0.43739147841571,0.043018065054315,57.706140222141,0.08168898
0.43775008427732,0.043076525565132,57.610169856594,0.081796845
0.43810816653486,0.043134985867799,57.514462624979,0.08190472
0.43846572647541,0.043193445950067,57.419017502579,0.082012605
0.43882276538119,0.043251905799739,57.323833469953,0.0821205
0.43917928452958,0.043310365404666,57.228909512909,0.082228405
0.43953528519318,0.043368824752748,57.134244622455,0.08233632
0.4398907686398,0.043427283831932,57.039837794777,0.082444245
0.44024573613251,0.043485742630216,56.9456880312,0.08255218
0.44060018892963,0.043544201135644,56.85179433816,0.082660125
0.44095412828481,0.043602659336308,56.758155727163,0.08276808
0.44130755544701,0.043661117220347,56.664771214759,0.082876045
0.44166047166056,0.043719574775948,56.571639822503,0.08298402
0.44201287816515,0.043778031991345,56.478760576935,0.083092005
0.44236477619587,0.043836488854818,56.386132509533,0.0832
0.44271616698324,0.043894945354694,56.293754656689,0.083308005
0.44306705175325,0.043953401479345,56.201626059677,0.08341602
0.44341743172734,0.04401185721719,56.109745764621,0.083524045
0.44376730812246,0.044070312556694,56.018112822466,0.08363208
0.44411668215107,0.044128767486366,55.926726288941,0.083740125
0.4444655550212,0.044187221994762,55.83558522454,0.08384818
0.44481392793643,0.044245676070482,55.744688694477,0.083956245
0.44516180209595,0.044304129702169,55.654035768668,0.08406432
0.44550917869455,0.044362582878514,55.563625521696,0.084172405
0.44585605892268,0.04442103558825,55.473457032782,0.0842805
0.44620244396642,0.044479487820154,55.383529385756,0.084388605
0.44654833500758,0.044537939563047,55.293841669025,0.08449672
0.44689373322365,0.044596390805795,55.204392975551,0.084604845
0.44723863978785,0.044654841537305,55.115182402814,0.08471298
0.44758305586917,0.044713291746529,55.026209052792,0.084821125
0.44792698263235,0.04477174142246,54.937472031926,0.08492928
0.44827042123796,0.044830190554136,54.848970451091,0.085037445
0.44861337149699,0.044888639144041,54.760703782806,0.08514562
0.44895583594465,0.044947087167515,54.672670778666,0.085253805
0.44929781572804,0.045005534613731,54.584870562988,0.085362
0.4496393119902,0.045063981471904,54.497302264409,0.085470205
0.44998032587007,0.045122427731289,54.40996501586,0.08557842
0.45032085850255,0.045180873381183,54.322857954536,0.085686645
0.45066091101852,0.045239318410924,54.235980221874,0.08579488
0.45100048454482,0.045297762809891,54.149330963524,0.085903124999999
0.45133958020432,0.045356206567503,54.062909329323,0.086011379999999
0.45167819911593,0.045414649673219,53.976714473272,0.086119644999999
0.45201634239458,0.045473092116539,53.890745553509,0.086227919999999
0.45235401115128,0.045531533887003,53.805001732278,0.086336204999999
0.45269120649313,0.045589974974188,53.719482175915,0.086444499999999
0.45302792952334,0.045648415367715,53.634186054812,0.086552804999999
0.45336418134125,0.04570685505724,53.5491125434,0.086661119999999
0.45369996304232,0.045765294032462,53.464260820121,0.086769444999999
0.45403527571821,0.045823732283115,53.379630067405,0.086877779999999
0.45437012045675,0.045882169798976,53.29521947164,0.086986124999999
0.45470449834195,0.045940606569857,53.211028223157,0.087094479999999
0.45503841045407,0.04599904258561,53.127055516201,0.087202844999999
0.45537185786961,0.046057477836124,53.043300548906,0.087311219999999
0.4557048416613,0.046115912311328,52.959762523274,0.087419604999999
0.45603736289818,0.046174346001187,52.876440645151,0.087527999999999
0.45636942264557,0.046232778895705,52.793334124206,0.087636404999999
0.45670102196508,0.046291210984922,52.710442173901,0.087744819999999
0.4570321619147,0.046349642258916,52.627764011476,0.087853244999999
0.45736284354873,0.046408072707802,52.54529885792,0.087961679999999
0.45769306791784,0.046466502321731,52.463045937955,0.088070124999999
0.45802283606911,0.046524931090894,52.381004480008,0.08817858
0.45835214904598,0.046583359005514,52.299173716191,0.088287044999999
0.45868100788835,0.046641786055853,52.217552882279,0.088395519999999
0.45900941363254,0.046700212232209,52.136141217685,0.088504004999999
0.4593373673113,0.046758637524915,52.054937965446,0.088612499999999
0.4596648699539,0.046817061924341,51.973942372192,0.088721004999999
0.45999192258605,0.046875485420893,51.893153688131,0.088829519999999
0.46031852622998,0.046933908005009,51.812571167024,0.088938044999999
0.46064468190446,0.046992329667168,51.73219406617,0.089046579999999
0.46097039062478,0.047050750397879,51.652021646374,0.089155124999999
0.46129565340279,0.047109170187688,51.572053171937,0.089263679999999
0.46162047124689,0.047167589027178,51.49228791063,0.089372244999999
0.46194484516211,0.047226006906962,51.412725133675,0.089480819999999
0.46226877615003,0.047284423817692,51.333364115723,0.089589404999999
0.4625922652089,0.047342839750051,51.254204134836,0.089697999999999
0.46291531333358,0.047401254694758,51.175244472464,0.089806604999999
0.46323792151557,0.047459668642565,51.096484413428,0.089915219999999
0.46356009074307,0.047518081584259,51.0179232459,0.090023844999999
0.46388182200094,0.04757649351066,50.939560261381,0.090132479999999
0.46420311627073,0.047634904412621,50.861394754683,0.090241124999999
0.46452397453074,0.047693314281029,50.78342602391,0.090349779999999
0.46484439775597,0.047751723106804,50.705653370437,0.090458444999999
0.46516438691816,0.047810130880899,50.628076098892,0.090567119999999
0.46548394298584,0.047868537594301,50.55069351714,0.090675804999999
0.46580306692429,0.047926943238027,50.473504936257,0.090784499999999
0.4661217596956,0.047985347803129,50.396509670518,0.090893204999999
0.46644002225864,0.048043751280691,50.319707037375,0.091001919999999
0.46675785556913,0.048102153661829,50.24309635744,0.091110644999999
0.4670752605796,0.048160554937691,50.166676954467,0.091219379999999
0.46739223823944,0.048218955099457,50.09044815533,0.091328124999999
0.46770878949492,0.048277354138339,50.014409290011,0.091436879999999
0.46802491528915,0.048335752045581,49.938559691579,0.091545644999999
0.46834061656218,0.048394148812457,49.862898696168,0.091654419999999
0.46865589425094,0.048452544430275,49.787425642968,0.091763204999999
0.46897074928929,0.048510938890372,49.712139874201,0.091871999999999
0.46928518260802,0.048569332184117,49.637040735106,0.091980804999999
0.46959919513488,0.048627724302909,49.562127573919,0.092089619999999
0.46991278779457,0.04868611523818,49.487399741862,0.092198444999999
0.47022596150879,0.048744504981391,49.412856593118,0.092307279999999
0.47053871719621,0.048802893524034,49.338497484818,0.092416124999999
0.47085105577253,0.04886128085763,49.264321777027,0.092524979999999
0.47116297815044,0.048919666973733,49.190328832723,0.092633844999999
0.47147448523969,0.048978051863925,49.11651801778,0.092742719999999
0.47178557794706,0.049036435519819,49.042888700956,0.092851604999999
0.47209625717641,0.049094817933057,48.96944025387,0.092960499999999
0.47240652382864,0.049153199095311,48.896172050993,0.093069404999999
0.47271637880177,0.049211578998283,48.823083469627,0.093178319999999
0.47302582299091,0.049269957633704,48.75017388989,0.093287244999999
0.47333485728826,0.049328334993336,48.6774426947,0.093396179999999
0.47364348258319,0.049386711068966,48.604889269762,0.093505124999999
0.47395169976217,0.049445085852415,48.532513003548,0.093614079999999
0.47425950970885,0.049503459335529,48.460313287283,0.093723044999999
0.47456691330401,0.049561831510185,48.388289514929,0.093832019999999
0.47487391142566,0.049620202368289,48.316441083171,0.093941004999999
0.47518050494894,0.049678571901773,48.244767391403,0.094049999999999
0.47548669474624,0.0497369401026,48.173267841708,0.094159004999999
0.47579248168714,0.049795306962759,48.101941838847,0.094268019999999
0.47609786663846,0.04985367247427,48.030788790242,0.094377044999999
0.47640285046426,0.049912036629179,47.959808105963,0.094486079999999
0.47670743402583,0.049970399419559,47.888999198711,0.094595124999999
0.47701161818176,0.050028760837514,47.818361483805,0.094704179999999
0.47731540378789,0.050087120875172,47.747894379167,0.094813244999999
0.47761879169736,0.050145479524691,47.677597305306,0.094922319999999
0.47792178276061,0.050203836778256,47.607469685306,0.095031404999999
0.47822437782538,0.050262192628078,47.537510944812,0.095140499999999
0.47852657773676,0.050320547066396,47.467720512009,0.095249604999999
0.47882838333715,0.050378900085477,47.39809781762,0.095358719999999
0.47912979546631,0.050437251677614,47.328642294882,0.095467844999999
0.47943081496137,0.050495601835126,47.259353379535,0.095576979999999
0.47973144265681,0.05055395055036,47.19023050981,0.095686124999999
0.48003167938451,0.050612297815689,47.121273126414,0.095795279999999
0.48033152597372,0.050670643623513,47.052480672514,0.095904444999999
0.48063098325113,0.050728987966257,46.983852593729,0.096013619999999
0.48093005204083,0.050787330836373,46.915388338109,0.096122804999999
0.48122873316433,0.050845672226341,46.847087356129,0.096231999999999
0.48152702744059,0.050904012128662,46.778949100673,0.096341204999999
0.48182493568601,0.050962350535869,46.710973027017,0.096450419999999
0.48212245871446,0.051020687440517,46.643158592824,0.096559644999999
0.4824195973373,0.051079022835187,46.575505258121,0.096668879999999
0.48271635236333,0.051137356712486,46.508012485295,0.096778124999999
0.48301272459887,0.051195689065047,46.440679739077,0.096887379999999
0.48330871484776,0.051254019885527,46.373506486524,0.096996644999999
0.48360432391133,0.05131234916661,46.306492197017,0.097105919999999
0.48389955258845,0.051370676901003,46.239636342241,0.097215204999999
0.48419440167552,0.05142900308144,46.172938396169,0.097324499999999
0.48448887196649,0.051487327700679,46.106397835061,0.097433804999999
0.48478296425287,0.051545650751502,46.04001413744,0.097543119999999
0.48507667932373,0.051603972226717,45.97378678409,0.097652444999999
0.48537001796574,0.051662292119156,45.907715258035,0.097761779999999
0.48566298096314,0.051720610421676,45.841799044532,0.097871124999999
0.48595556909777,0.051778927127156,45.776037631057,0.097980479999999
0.48624778314909,0.051837242228503,45.710430507295,0.098089844999999
0.48653962389417,0.051895555718646,45.644977165124,0.098199219999999
0.48683109210773,0.051953867590537,45.57967709861,0.098308604999999
0.4871221885621,0.052012177837155,45.514529803987,0.098417999999999
0.48741291402728,0.0520704864515,45.449534779654,0.098527404999999
0.48770326927092,0.052128793426598,45.384691526156,0.098636819999999
0.48799325505836,0.052187098755496,45.319999546175,0.098746244999999
0.48828287215259,0.052245402431267,45.255458344523,0.098855679999999
0.4885721213143,0.052303704447006,45.191067428123,0.098965124999999
0.4888610033019,0.052362004795833,45.126826306005,0.099074579999999
0.48914951887149,0.052420303470889,45.062734489287,0.099184044999999
0.48943766877687,0.052478600465339,44.998791491172,0.099293519999999
0.48972545376961,0.052536895772373,44.934996826932,0.099403004999999
0.49001287459899,0.0525951893852,44.871350013898,0.099512499999999
0.49029993201204,0.052653481297056,44.807850571449,0.099622004999999
0.49058662675354,0.052711771501198,44.744498021004,0.099731519999999
0.49087295956606,0.052770059990904,44.681291886004,0.099841044999999
0.49115893118992,0.052828346759477,44.618231691909,0.099950579999999
0.49144454236324,0.052886631800242,44.555316966186,0.100060125
0.49172979382192,0.052944915106546,44.492547238291,0.10016968
0.49201468629968,0.053003196671758,44.429922039674,0.100279245
0.49229922052802,0.05306147648927,44.367440903747,0.10038882
0.4925833972363,0.053119754552495,44.305103365895,0.100498405
0.49286721715168,0.053178030854869,44.242908963451,0.100608
0.49315068099917,0.053236305389851,44.180857235694,0.100717605
0.49343378950163,0.053294578150918,44.118947723833,0.10082722
0.49371654337978,0.053352849131573,44.057179971003,0.100936845
0.49399894335218,0.053411118325338,43.995553522248,0.10104648
0.49428099013529,0.053469385725759,43.934067924517,0.101156125
0.49456268444345,0.053527651326399,43.872722726652,0.10126578
0.49484402698887,0.053585915120849,43.811517479375,0.101375445
0.49512501848169,0.053644177102714,43.750451735285,0.10148512
0.49540565962993,0.053702437265627,43.689525048841,0.101594805
0.49568595113954,0.053760695603238,43.628736976359,0.1017045
0.49596589371441,0.053818952109218,43.568087075998,0.101814205
0.49624548805633,0.053877206777261,43.507574907748,0.10192392
0.49652473486505,0.053935459601081,43.447200033428,0.102033645
0.49680363483829,0.053993710574413,43.386962016673,0.10214338
0.49708218867169,0.054051959691011,43.326860422922,0.102253125
0.49736039705888,0.054110206944653,43.266894819412,0.10236288
0.49763826069147,0.054168452329134,43.207064775166,0.102472645
0.49791578025903,0.054226695838271,43.14736986099,0.10258242
0.49819295644914,0.054284937465903,43.087809649455,0.102692205
0.49846978994738,0.054343177205887,43.028383714891,0.102802
0.49874628143733,0.0544014150521,42.969091633386,0.102911805
0.49902243160059,0.054459650998441,42.909932982764,0.10302162
0.49929824111677,0.054517885038828,42.850907342586,0.103131445
0.49957371066353,0.054576117167199,42.792014294134,0.10324128
0.49984884091656,0.054634347377513,42.73325342041,0.103351125
0.5001236325496,0.054692575663746,42.674624306119,0.10346098
0.50039808623444,0.054750802019896,42.616126537666,0.103570845
0.50067220264094,0.054809026439981,42.557759703146,0.10368072
0.50094598243701,0.054867248918038,42.499523392334,0.103790605
0.50121942628867,0.054925469448122,42.44141719668,0.1039005
0.50149253486,0.054983688024309,42.383440709295,0.104010405
0.50176530881318,0.055041904640694,42.325593524946,0.10412032
0.50203774880849,0.055100119291392,42.267875240048,0.104230245
0.50230985550433,0.055158331970537,42.210285452655,0.10434018
0.50258162955719,0.05521654267228,42.152823762451,0.104450125
0.50285307162171,0.055274751390793,42.095489770743,0.10456008
0.50312418235065,0.055332958120267,42.038283080451,0.104670045
0.50339496239489,0.055391162854911,41.981203296102,0.10478002
0.50366541240348,0.055449365588955,41.92425002382,0.104890005
0.50393553302361,0.055507566316644,41.867422871321,0.105
