d,ep,stress_yy,total_strain_yy
0,0,0,0
0,0,6.8797190688834,0.00010000499999996
0,0,13.758876406685,0.00020001999999997
0,0,20.637472210044,0.00030004499999992
0,0,27.515506675558,0.00040007999999991
0,0,34.392979999647,0.00050012499999996
0,0,41.269892378663,0.00060017999999995
0,0,48.146244008907,0.00070024499999988
0,0,55.022035086568,0.00080031999999997
0,0,61.897265807699,0.00090040499999988
0,0,68.771936368286,0.0010004999999998
0,0,75.646046964208,0.0011006050000001
0,0,82.519597791284,0.00120072
0,0,89.392589045164,0.0013008450000001
0,0,96.265020921448,0.0014009800000001
0,0,103.13689361571,0.0015011250000001
0,0,110.00820732331,0.00160128
0,0,116.87896223956,0.001701445
0,0,123.74915855968,0.0018016200000001
0,0,130.61879647882,0.001901805
0,0,137.48787619199,0.0020019999999999
0,0,144.35639789413,0.002102205
0,0,151.22436178007,0.0022024199999999
0,0,158.09176804461,0.002302645
0,0,164.9586168823,0.00240288
0,0,171.82490848776,0.0025031249999999
0,0,178.69064305547,0.0026033799999999
0,0,185.55582077975,0.002703645
0,0,192.42044185489,0.00280392
0,0,199.28450647504,0.0029042049999999
0,0,206.14801483432,0.0030044999999999
0,0,213.01096712673,0.0031048050000001
0,0,219.8733635461,0.0032051200000001
0,0,226.7352042863,0.0033054450000001
0,0,233.59648954101,0.00340578
0,0,240.45721950385,0.003506125
0,0,247.3173943683,0.0036064800000001
0,0,254.17701432781,0.0037068450000001
0,0,261.03607957571,0.00380722
0,0,267.89459030523,0.003907605
0,0,274.75254670952,0.004008
0,0,281.60994898159,0.004108405
0,0,288.46679731447,0.00420882
0,0,295.32309190096,0.004309245
0,0,302.17883293384,0.00440968
0,0,309.03402060575,0.0045101249999999
0,0,315.88865510935,0.0046105799999999
0,3.1362790300889e-05,319.51666031667,0.004711045
0,9.7549931077492e-05,319.56205353714,0.00481152
0,0.00016373052342964,319.60744224617,0.0049120049999999
0,0.00022990456865699,319.65282644462,0.0050124999999999
0,0.00029607206805886,319.69820613339,0.0051130050000001
0,0.00036223302293344,319.74358131341,0.0052135200000001
0,0.0004283874345793,319.78895198557,0.0053140450000001
0,0.0004945353042943,319.83431815073,0.0054145800000001
0,0.00056067663337608,319.8796798098,0.0055151250000001
0,0.00062681142312189,319.92503696369,0.00561568
0,0.00069293967482823,319.97038961329,0.005716245
0,0.00075906138979166,320.01573775949,0.0058168200000001
0,0.00082517656930806,320.0610814032,0.005917405
0,0.00089128521467318,320.10642054529,0.006018
0,0.00095738732718205,320.15175518668,0.0061186049999999
0,0.0010234829081297,320.19708532824,0.00621922
0,0.0010895719588104,320.24241097089,0.0063198449999999
0,0.0011556544805185,320.28773211551,0.0064204799999999
0,0.0012217304745473,320.33304876299,0.0065211249999999
0,0.0012877999421905,320.37836091422,0.0066217799999999
0,0.0013538628847407,320.42366857009,0.006722445
0,0.0014199193034906,320.46897173151,0.00682312
0,0.0014859691997321,320.51427039937,0.0069238049999999
0,0.0015520125747572,320.55956457454,0.0070244999999999
0,0.0016180494298573,320.60485425795,0.0071252049999999
0,0.0016840797663234,320.65013945046,0.0072259200000001
0,0.0017501035854459,320.69542015295,0.0073266450000001
0,0.0018161208885151,320.74069636634,0.0074273800000001
0,0.001882131676821,320.78596809151,0.0075281250000001
0,0.001948135951653,320.83123532935,0.0076288800000001
0,0.0020141337142998,320.87649808076,0.0077296450000001
0,0.0020801249660506,320.92175634661,0.00783042
0,0.0021461097081934,320.96701012781,0.007931205
0,0.0022120879420163,321.01225942525,0.008032
0,0.0022780596688069,321.05750423979,0.008132805
0,0.0023440248898522,321.10274457233,0.0082336199999999
0,0.0024099836064389,321.14798042379,0.008334445
0,0.0024759358198536,321.19321179503,0.0084352799999999
0,0.0025418815313822,321.23843868692,0.008536125
0,0.0026078207423103,321.28366110039,0.0086369799999999
0,0.0026737534539233,321.3288790363,0.008737845
0,0.002739679667506,321.37409249554,0.00883872
0,0.0028055993843428,321.41930147903,0.0089396049999999
0,0.0028715126057179,321.46450598759,0.0090404999999999
0,0.0029374193329151,321.50970602216,0.0091414049999999
0,0.0030033195672174,321.55490158363,0.0092423199999999
0,0.0030692133099083,321.60009267286,0.0093432450000001
0,0.0031351005622699,321.64527929071,0.00944418
0,0.0032009813255847,321.69046143813,0.009545125
0,0.0032668556011343,321.73563911595,0.00964608
0,0.0033327233902003,321.78081232509,0.009747045
0,0.0033985846940637,321.82598106642,0.0098480200000001
0,0.0034644395140052,321.87114534082,0.0099490050000001
0,0.0035302878513052,321.91630514919,0.01005
0,0.0035961297072435,321.96146049241,0.010151005
0,0.0036619650830998,322.00661137133,0.01025202
0,0.0037277939801529,322.05175778689,0.010353045
0,0.003793616399682,322.09689973993,0.01045408
0,0.0038594323429652,322.14203723135,0.010555125
0,0.0039252418112807,322.18717026202,0.01065618
0,0.0039910448059061,322.23229883287,0.010757245
0,0.0040568413281187,322.27742294468,0.01085832
0,0.0041226313791955,322.32254259843,0.010959405
0,0.0041884149604127,322.36765779497,0.0110605
0,0.0042541920730466,322.41276853518,0.011161605
0,0.004319962718373,322.45787481992,0.01126272
0,0.0043857268976673,322.50297665009,0.011363845
0,0.0044514846122046,322.54807402657,0.01146498
0,0.0045172358632593,322.59316695026,0.011566125
0,0.0045829806521057,322.63825542201,0.01166728
0,0.0046487189800177,322.6833394427,0.011768445
0,0.0047144508482687,322.72841901321,0.01186962
0,0.0047801762581321,322.77349413445,0.011970805
0,0.0048458952108804,322.81856480727,0.012072
0,0.0049116077077859,322.86363103255,0.012173205
0,0.0049773137501208,322.90869281117,0.01227442
0,0.0050430133391568,322.95375014399,0.012375645
0,0.0051087064761648,322.99880303194,0.01247688
0,0.0051743931624159,323.04385147587,0.012578125
0,0.0052400733991804,323.08889547662,0.01267938
0,0.0053057471877285,323.13393503511,0.012780645
0,0.0053714145293301,323.17897015223,0.01288192
0,0.0054370754252544,323.22400082879,0.012983205
0,0.0055027298767704,323.26902706575,0.0130845
0,0.0055683778851464,323.31404886395,0.013185805
0,0.0056340194516511,323.35906622422,0.01328712
0,0.0056996545775522,323.40407914749,0.013388445
0,0.0057652832641171,323.44908763465,0.01348978
0,0.0058309055126132,323.49409168651,0.013591125
0,0.0058965213243069,323.53909130401,0.01369248
0,0.0059621307004644,323.58408648799,0.013793845
0,0.0060277336423521,323.62907723931,0.01389522
0,0.0060933301512353,323.67406355888,0.013996605
0,0.0061589202283795,323.71904544757,0.014098
0,0.0062245038750494,323.76402290622,0.014199405
0,0.0062900810925096,323.80899593571,0.01430082
0,0.0063556518820241,323.85396453694,0.014402245
0,0.0064212162448567,323.89892871078,0.01450368
0,0.0064867741822709,323.94388845808,0.014605125
0,0.0065523256955295,323.98884377973,0.01470658
0,0.0066178707858952,324.03379467658,0.014808045
0,0.0066834094546303,324.07874114954,0.01490952
0,0.0067489417029965,324.12368319943,0.015011005
0,0.0068144675322557,324.16862082717,0.0151125
0,0.0068799869436687,324.21355403362,0.015214005
0,0.0069454999384963,324.25848281963,0.01531552
0,0.0070110065179988,324.30340718606,0.015417045
0,0.0070765066834364,324.34832713382,0.01551858
0,0.0071420004360687,324.39324266374,0.015620125
0,0.0072074877771551,324.43815377674,0.01572168
0,0.0072729687079542,324.48306047364,0.015823245
0,0.0073384432297249,324.52796275533,0.01592482
0,0.0074039113437252,324.57286062268,0.016026405
0,0.0074693730512128,324.61775407655,0.016128
0,0.0075348283534452,324.66264311782,0.016229605
0,0.0076002772516795,324.70752774736,0.01633122
0,0.0076657197471723,324.752407966,0.016432845
0,0.00773115584118,324.79728377467,0.01653448
0,0.0077965855349584,324.84215517417,0.016636125
0,0.0078620088297633,324.88702216542,0.01673778
0,0.0079274257268496,324.93188474927,0.016839445
0,0.0079928362274724,324.97674292657,0.01694112
0,0.008058240332886,325.0215966982,0.017042805
0,0.0081236380443446,325.06644606505,0.0171445
0,0.0081890293631019,325.11129102793,0.017246205
0,0.0082544142904112,325.15613158774,0.01734792
0,0.0083197928275254,325.20096774536,0.017449645
0,0.0083851649756974,325.24579950164,0.01755138
0,0.0084505307361793,325.29062685741,0.017653125
0,0.008515890110223,325.33544981358,0.01775488
0,0.0085812430990798,325.380268371,0.017856645
0,0.008646589704001,325.42508253054,0.01795842
0,0.0087119299262375,325.46989229307,0.018060205
0,0.0087772637670395,325.51469765942,0.018162
0,0.0088425912276572,325.55949863048,0.018263805
0,0.0089079123093403,325.6042952071,0.01836562
0,0.0089732270133378,325.64908739014,0.018467445
0,0.009038535340899,325.6938751805,0.01856928
0,0.0091038372932723,325.738658579,0.018671125
0,0.0091691328717058,325.7834375865,0.01877298
0,0.0092344220774476,325.82821220388,0.018874845
0,0.0092997049117449,325.87298243202,0.01897672
0,0.0093649813758452,325.91774827174,0.019078605
0,0.0094302514709949,325.96250972393,0.0191805
0,0.0094955151984404,326.00726678945,0.019282405
0,0.0095607725594277,326.05201946913,0.01938432
0,0.0096260235552025,326.09676776385,0.019486245
0,0.0096912681870101,326.14151167447,0.01958818
0,0.0097565064560953,326.18625120187,0.019690125
0,0.0098217383637028,326.23098634688,0.01979208
0,0.0098869639110766,326.27571711036,0.019894045
0,0.0099521830994606,326.32044349319,0.01999602
0,0.010017395930098,326.3651654962,0.020098005
0,0.010082602404232,326.4098831203,0.0202
0,0.010147802523106,326.45459636627,0.020302005
0,0.010212996287962,326.49930523502,0.02040402
0,0.010278183700041,326.5440097274,0.020506045
0,0.010343364760586,326.58870984429,0.02060808
0,0.010408539470837,326.63340558648,0.020710125
0,0.010473707832036,326.67809695491,0.02081218
0,0.010538869845423,326.72278395036,0.020914245
0,0.010604025512238,326.76746657374,0.02101632
0,0.010669174833721,326.81214482588,0.021118405
0,0.010734317811112,326.85681870764,0.0212205
0,0.010799454445649,326.90148821989,0.021322605
0,0.010864584738571,326.94615336347,0.02142472
0,0.010929708691117,326.99081413923,0.021526845
0,0.010994826304525,327.03547054805,0.02162898
0,0.011059937580032,327.08012259075,0.021731125
0,0.011125042518875,327.12477026822,0.02183328
0,0.011190141122291,327.16941358127,0.021935445
0,0.011255233391518,327.2140525308,0.02203762
0,0.01132031932779,327.25868711765,0.022139805
0,0.011385398932345,327.30331734266,0.022242
0,0.011450472206416,327.34794320669,0.022344205
0,0.01151553915124,327.39256471059,0.02244642
0,0.011580599768052,327.43718185521,0.022548645
0,0.011645654058084,327.48179464141,0.02265088
0,0.011710702022573,327.52640307005,0.022753125
0,0.01177574366275,327.57100714196,0.02285538
0,0.011840778979849,327.615606858,0.022957645
0,0.011905807975105,327.66020221903,0.02305992
0,0.011970830649748,327.7047932259,0.023162205
0,0.01203584700501,327.74937987946,0.0232645
0,0.012100857042125,327.79396218053,0.023366805
0,0.012165860762323,327.83854013001,0.02346912
0,0.012230858166836,327.88311372872,0.023571445
0,0.012295849256894,327.92768297751,0.02367378
0,0.012360834033728,327.97224787725,0.023776125
0,0.012425812498567,328.01680842876,0.02387848
0,0.012490784652641,328.06136463291,0.023980845
0,0.01255575049718,328.10591649055,0.02408322
0,0.012620710033413,328.1504640025,0.024185605
0,0.012685663262568,328.19500716966,0.024288
0,0.012750610185874,328.23954599283,0.024390405
0,0.012815550804557,328.28408047287,0.02449282
0,0.012880485119847,328.32861061065,0.024595245
0,0.012945413132969,328.37313640698,0.02469768
0,0.013010334845152,328.41765786275,0.024800125
0,0.01307525025762,328.46217497876,0.02490258
0,0.013140159371601,328.50668775591,0.025005045
0,0.01320506218832,328.55119619498,0.02510752
0,0.013269958709002,328.59570029686,0.025210005
0,0.013334848934873,328.64020006241,0.0253125
0,0.013399732867157,328.68469549244,0.025415005
0,0.013464610507078,328.72918658781,0.02551752
0,0.01352948185586,328.77367334938,0.025620045
0,0.013594346914727,328.81815577797,0.02572258
0,0.013659205684903,328.86263387443,0.025825125
0,0.013724058167609,328.90710763959,0.02592768
0,0.013788904364068,328.95157707434,0.026030245
0,0.013853744275504,328.99604217949,0.02613282
0,0.013918577903136,329.04050295587,0.026235405
0,0.013983405248188,329.08495940436,0.026338
0,0.014048226311879,329.12941152578,0.026440605
0,0.014113041095431,329.17385932101,0.02654322
0,0.014177849600064,329.21830279083,0.026645845
0,0.014242651826999,329.26274193611,0.02674848
0,0.014307447777453,329.3071767577,0.026851125
0,0.014372237452648,329.35160725645,0.02695378
0,0.014437020853802,329.39603343317,0.027056445
0,0.014501797982133,329.44045528874,0.02715912
0,0.01456656883886,329.48487282397,0.027261805
0,0.0146313334252,329.52928603972,0.0273645
0,0.014696091742372,329.57369493682,0.027467205
0,0.014760843791592,329.6180995161,0.02756992
0,0.014825589574077,329.66249977843,0.027672645
0,0.014890329091043,329.70689572463,0.02777538
0,0.014955062343708,329.75128735553,0.027878125
0,0.015019789333285,329.79567467199,0.02798088
0,0.015084510060992,329.84005767486,0.028083645
0,0.015149224528042,329.88443636493,0.02818642
0,0.015213932735651,329.92881074308,0.028289205
0,0.015278634685033,329.97318081016,0.028392
0,0.015343330377402,330.01754656696,0.028494805
0,0.015408019813971,330.06190801435,0.02859762
0,0.015472702995954,330.10626515316,0.028700445
0,0.015537379924564,330.15061798424,0.02880328
0,0.015602050601013,330.19496650839,0.028906125
0,0.015666715026513,330.23931072651,0.02900898
0,0.015731373202277,330.28365063936,0.029111845
0,0.015796025129515,330.32798624786,0.02921472
0,0.01586067080944,330.37231755277,0.029317605
0,0.015925310243261,330.41664455496,0.0294205
0,0.01598994343219,330.46096725528,0.029523405
0,0.016054570377436,330.50528565453,0.02962632
0,0.016119191080209,330.54959975357,0.029729245
0,0.016183805541719,330.59390955323,0.02983218
0,0.016248413763174,330.63821505435,0.029935125
0,0.016313015745783,330.68251625776,0.03003808
0,0.016377611490755,330.72681316429,0.030141045
0,0.016442200999297,330.77110577477,0.03024402
0,0.016506784272618,330.81539409005,0.030347005
0,0.016571361311924,330.85967811096,0.03045
0,0.016635932118422,330.9039578383,0.030553005
0,0.01670049669332,330.94823327296,0.03065602
0,0.016765055037822,330.99250441573,0.030759045
0,0.016829607153136,331.03677126745,0.03086208
0,0.016894153040467,331.08103382898,0.030965125
0,0.016958692701019,331.12529210111,0.03106818
0,0.017023226135998,331.1695460847,0.031171245
0,0.017087753346608,331.21379578057,0.03127432
0,0.017152274334053,331.25804118955,0.031377405
0,0.017216789099537,331.3022823125,0.0314805
0,0.017281297644264,331.34651915021,0.031583605
0,0.017345799969437,331.39075170352,0.03168672
0,0.017410296076257,331.43497997328,0.031789845
0,0.017474785965928,331.47920396033,0.03189298
0,0.017539269639653,331.52342366545,0.031996125
0,0.017603747098631,331.56763908949,0.03209928
0,0.017668218344065,331.61185023331,0.032202445
0,0.017732683377156,331.65605709771,0.03230562
0,0.017797142199105,331.70025968352,0.032408805
0,0.017861594811111,331.74445799156,0.032512
0,0.017926041214374,331.78865202271,0.032615205
0,0.017990481410095,331.83284177774,0.03271842
0,0.018054915399472,331.87702725749,0.032821645
0,0.018119343183705,331.92120846282,0.03292488
0,0.018183764763992,331.96538539451,0.033028125
0,0.01824818014153,332.00955805341,0.03313138
0,0.018312589317519,332.05372644037,0.033234645
0,0.018376992293155,332.09789055618,0.03333792
0,0.018441389069636,332.1420504017,0.033441205
0,0.018505779648158,332.18620597772,0.0335445
0,0.018570164029919,332.23035728507,0.033647805
0,0.018634542216113,332.27450432461,0.03375112
0,0.018698914207937,332.31864709715,0.033854445
0,0.018763280006587,332.36278560352,0.03395778
0,0.018827639613256,332.4069198445,0.034061125
0,0.018891993029141,332.45104982098,0.03416448
0,0.018956340255435,332.49517553374,0.034267845
0,0.019020681293333,332.53929698362,0.03437122
0,0.019085016144028,332.58341417145,0.034474605
0,0.019149344808714,332.62752709805,0.034578
0,0.019213667288583,332.67163576422,0.034681405
0,0.019277983584829,332.71574017082,0.03478482
0,0.019342293698643,332.75984031868,0.034888245
0,0.019406597631218,332.80393620856,0.03499168
0,0.019470895383744,332.84802784136,0.035095125
0,0.019535186957414,332.89211521784,0.03519858
0,0.019599472353419,332.93619833886,0.035302045
0,0.019663751572948,332.98027720522,0.03540552
0,0.019728024617193,333.02435181778,0.035509005
0,0.019792291487343,333.0684221773,0.0356125
0,0.019856552184588,333.11248828464,0.035716005
0,0.019920806710116,333.15655014064,0.03581952
0,0.019985055065118,333.20060774608,0.035923045
0,0.02004929725078,333.24466110179,0.03602658
0,0.020113533268292,333.28871020861,0.036130125
0,0.020177763118842,333.33275506734,0.03623368
0,0.020241986803616,333.37679567881,0.036337245
0,0.020306204323802,333.42083204384,0.03644082
0,0.020370415680587,333.46486416326,0.036544405
0,0.020434620875157,333.50889203785,0.036648
0,0.020498819908699,333.55291566846,0.036751605
0,0.020563012782398,333.59693505592,0.03685522
0,0.020627199497439,333.640950201,0.036958845
0,0.020691380055008,333.68496110458,0.03706248
0,0.02075555445629,333.72896776744,0.037166125
0,0.020819722702468,333.77297019038,0.03726978
0,0.020883884794727,333.81696837428,0.037373445
0,0.020948040734251,333.8609623199,0.03747712
0,0.021012190522223,333.9049520281,0.037580805
0,0.021076334159827,333.94893749963,0.0376845
0,0.021140471648244,333.99291873539,0.037788205
0,0.021204602988657,334.03689573614,0.03789192
0,0.021268728182248,334.08086850272,0.037995645
0,0.021332847230199,334.12483703593,0.03809938
0,0.021396960133692,334.16880133661,0.038203125
0,0.021461066893906,334.21276140554,0.03830688
0,0.021525167512023,334.25671724356,0.038410645
0,0.021589261989224,334.30066885149,0.03851442
0,0.021653350326688,334.34461623012,0.038618205
0,0.021717432525594,334.38855938027,0.038722
0,0.021781508587123,334.43249830279,0.038825805
0,0.021845578512452,334.47643299846,0.03892962
0,0.021909642302762,334.52036346808,0.039033445
0,0.021973699959229,334.56428971251,0.03913728
0,0.022037751483032,334.60821173252,0.039241125
0,0.022101796875348,334.65212952895,0.03934498
0,0.022165836137355,334.69604310261,0.039448845
0,0.02222986927023,334.73995245429,0.03955272
0,0.022293896275149,334.78385758481,0.039656605
0,0.022357917153288,334.82775849501,0.0397605
0,0.022421931905824,334.87165518567,0.039864405
0,0.022485940533932,334.91554765762,0.03996832
0,0.022549943038786,334.95943591166,0.040072245
0,0.022613939421563,335.0033199486,0.04017618
0,0.022677929683436,335.04719976927,0.040280125
0,0.02274191382558,335.09107537446,0.04038408
0,0.022805891849169,335.134946765,0.040488045
0,0.022869863755376,335.17881394166,0.04059202
0,0.022933829545374,335.2226769053,0.040696005
0,0.022997789220336,335.2665356567,0.0408
0,0.023061742781435,335.31039019668,0.040904005
0,0.023125690229843,335.35424052604,0.04100802
0,0.023189631566732,335.39808664561,0.041112045
0,0.023253566793272,335.44192855618,0.04121608
0,0.023317495910637,335.48576625854,0.041320125
0,0.023381418919995,335.52959975355,0.04142418
0,0.023445335822518,335.57342904197,0.041528245
0,0.023509246619376,335.61725412464,0.04163232
0,0.023573151311739,335.66107500236,0.041736405
0,0.023637049900776,335.70489167592,0.0418405
0,0.023700942387656,335.74870414613,0.041944605
0,0.023764828773548,335.79251241382,0.04204872
0,0.023828709059622,335.83631647977,0.042152845
0,0.023892583247043,335.88011634482,0.04225698
0,0.023956451336982,335.92391200973,0.042361125
0,0.024020313330604,335.96770347535,0.04246528
0,0.024084169229078,336.01149074246,0.042569445
0,0.024148019033569,336.05527381187,0.04267362
0,0.024211862745245,336.09905268441,0.042777805
0,0.024275700365271,336.14282736084,0.042882
0,0.024339531894814,336.186597842,0.042986205
1.0893167075748e-05,0.024403167396284,336.22620571062,0.04309042
3.7172286824515e-05,0.02446652854842,336.25992135086,0.043194645
8.0840769281728e-05,0.024529580442576,336.28695467448,0.04329888
0.00014414127135467,0.024592284001418,336.30641186101,0.043403125
0.00022962301648173,0.024654594805449,336.31726535234,0.04350738
0.00034016884079427,0.024716462621873,336.31833792844,0.043611645
0.00047903265425491,0.024777830751882,336.3082811686,0.04371592
0.00064988238394473,0.024838635282419,336.2855497461,0.043820205
0.00085684485967267,0.024898804304132,336.2483724002,0.0439245
0.0011045529779526,0.024958257089665,336.19471884889,0.044028805
0.0013981943588055,0.02501690324598,336.12226223584,0.04413312
0.0017435603507701,0.025074641860688,336.0283367521,0.044237445
0.0021470937968152,0.025131360670042,335.90989016955,0.04434178
0.0026159334460664,0.025186935285488,335.76343119654,0.044446125
0.0031579522849344,0.025241228526296,335.5849718414,0.04455048
0.0037817863845372,0.025294089917603,335.36996538164,0.044654845
0.0044968501460121,0.025345355425662,335.11324112338,0.04475922
0.0053133331293143,0.025394847514231,334.80893793221,0.044863605
0.0062421730493132,0.025442375616493,334.4504395509,0.044968
0.0072950108152816,0.025487736920038,334.0303108264,0.045072405
0.0084840651521067,0.025530718553967,333.5402654711,0.04517682
0.0098220309189606,0.025571099362612,332.97112507276,0.045281245000001
0.011321890756648,0.025608653190334,332.31282422074,0.04538568
0.012996688957673,0.02564315282474,331.55444996312,0.045490125
0.014859257942519,0.025674374765949,330.68433076203,0.04559458
0.016921901283173,0.025702104753125,329.69018540109,0.045699045
0.019196041496922,0.025726143904841,328.55934031555,0.04580352
0.021725291102708,0.025745732072639,327.26110955419,0.045908005
0.024454039127206,0.02576183929721,325.81678924304,0.0460125
0.027438976862395,0.025773477337272,324.18753944646,0.046117005
0.030677615745356,0.025780689969589,322.36567130375,0.04622152
0.034130049030705,0.025784173388778,320.36635298891,0.046326045
0.037822840122916,0.025784173388778,318.1099043912,0.04643058
0.041746847989536,0.025784173388778,315.33801985845,0.046535125
0.045890489299176,0.025784173388778,312.09285776593,0.04663968
0.050240033888368,0.025784173388778,308.4216019446,0.046744245
0.054779955621991,0.025784173388778,304.37492710942,0.04684882
0.059493322704508,0.025784173388778,300.0054367511,0.046953405000001
0.064362174340747,0.025784173388778,295.3662245517,0.047058
0.069368017534393,0.025784173388778,290.50934859699,0.047162605
0.074492110226043,0.025784173388778,285.48486553865,0.04726722
0.079715840591548,0.025784173388778,280.33984542301,0.047371845
0.08502102718432,0.025784173388778,275.11769212375,0.04747648
0.090390168480599,0.025784173388778,269.85769615928,0.047581125
0.095806640266456,0.025784173388778,264.59479804788,0.04768578
0.10125484237726,0.025784173388778,259.35953181249,0.047790445
0.10672029857269,0.025784173388778,254.17811421618,0.04789512
0.112189714817,0.025784173388778,249.07264493595,0.047999805
0.11765100202557,0.025784173388778,244.06138515265,0.0481045
0.12309326956556,0.025784173388778,239.15908596593,0.048209205
0.12850679560447,0.025784173388778,234.37734279427,0.04831392
0.13388297992095,0.025784173388778,229.72495685024,0.048418645
0.13921428414385,0.025784173388778,225.20828944736,0.04852338
0.14449416366161,0.025784173388778,220.83159902998,0.048628125
0.14971699471274,0.025784173388778,216.59735429762,0.04873288
0.15487799947467,0.025784173388778,212.50651959277,0.048837645
0.15997317134198,0.025784173388778,208.55881087643,0.04894242
0.16499920203906,0.025784173388778,204.75292220224,0.049047205
0.16995341175072,0.025784173388778,201.08672371228,0.049152000000001
0.17483368307461,0.025784173388778,197.55743290441,0.049256805
0.17963839929509,0.025784173388778,194.1617613517,0.04936162
0.18436638723988,0.025784173388778,190.89603926154,0.049466445000001
0.18901686479842,0.025784173388778,187.7563203114,0.04957128
0.19358937998432,0.025784173388778,184.73848340026,0.049676125
0.19808380853388,0.025784173388778,181.83825978005,0.04978098
0.20250027165274,0.025784173388778,179.05134044973,0.049885845
0.20683911596667,0.025784173388778,176.3734071754,0.04999072
0.2111008820188,0.025784173388778,173.80017115311,0.050095605
0.21528627617607,0.025784173388778,171.32740363679,0.0502005
0.21939614565479,0.025784173388778,168.95095981618,0.050305405
0.22343145638317,0.025784173388778,166.66679705768,0.05041032
0.22739327343112,0.025784173388778,164.47098846516,0.050515245
0.23128274375353,0.025784173388778,162.35973257872,0.05062018
0.23510108101072,0.025784173388778,160.32935990663,0.050725125000001
0.2388495522481,0.025784173388778,158.37633687857,0.050830080000001
0.24252946623515,0.025784173388778,156.49726771523,0.050935045000001
0.24614216328217,0.025784173388778,154.6888946295,0.05104002
0.24968900637002,0.025784173388778,152.94809670558,0.051145005
0.25317137344428,0.025784173388778,151.27188774446,0.05125
0.25659065074064,0.025784173388778,149.65741331401,0.051355005
0.25994822702162,0.025784173388778,148.10194720066,0.05146002
0.263245488618,0.025784173388778,146.60288742395,0.051565045
0.2664838151796,0.025784173388778,145.15775194565,0.05167008
0.26966457605059,0.025784173388778,143.76417418065,0.051775125
0.27278912719397,0.025784173388778,142.41989839572,0.05188018
0.27585880859847,0.025784173388778,141.12277506525,0.051985245
0.27887494210844,0.025784173388778,139.87075623883,0.05209032
0.28183882962448,0.025784173388778,138.66189096351,0.052195405
0.28475175162827,0.025784173388778,137.49432079397,0.0523005
0.28761496599069,0.025784173388778,136.36627541582,0.052405605
0.29042970702704,0.025784173388778,135.27606840066,0.05251072
0.29319718476745,0.025784173388778,134.22209310611,0.052615845
0.29591858441423,0.025784173388778,133.20281872993,0.052720980000001
0.29859506596153,0.025784173388778,132.2167865234,0.052826125000001
0.30122776395528,0.025784173388778,131.26260616695,0.052931280000001
0.30381778737434,0.025784173388778,130.33895230823,0.053036445000001
0.30636621961586,0.025784173388778,129.44456126135,0.053141620000001
0.30887411857003,0.025784173388778,128.57822786471,0.053246805000001
0.31134251677116,0.025784173388778,127.73880249354,0.053352
0.31377242161361,0.025784173388778,126.9251882229,0.053457205
0.31616481562262,0.025784173388778,126.13633813581,0.05356242
0.31852065677104,0.025784173388778,125.37125277137,0.053667645
0.3208408788345,0.025784173388778,124.62897770691,0.05377288
0.32312639177805,0.025784173388778,123.90860126867,0.053878125
0.32537808216856,0.025784173388778,123.20925236484,0.05398338
0.32759681360761,0.025784173388778,122.53009843545,0.054088645
0.3297834271805,0.025784173388778,121.87034351311,0.05419392
0.33193874191739,0.025784173388778,121.22922638908,0.054299205
0.33406355526326,0.025784173388778,120.60601887937,0.0544045
0.33615864355382,0.025784173388778,120.00002418524,0.054509805000001
0.33822476249462,0.025784173388778,119.41057534333,0.054615120000001
0.34026264764147,0.025784173388778,118.83703376043,0.054720445000001
0.34227301488013,0.025784173388778,118.27878782817,0.054825780000001
0.34425656090362,0.025784173388778,117.73525161323,0.054931125000001
0.34621396368605,0.025784173388778,117.2058636188,0.055036480000001
0.34814588295144,0.025784173388778,116.69008561337,0.055141845
0.35005296063692,0.025784173388778,116.18740152284,0.055247220000001
0.3519358213493,0.025784173388778,115.69731638247,0.055352605
0.35379507281434,0.025784173388778,115.21935534524,0.055458000000001
0.35563130631833,0.025784173388778,114.7530627433,0.055563405
0.35743800972773,0.02581142744568,113.9789895051,0.055668820000001
0.35921462808325,0.025844064303869,113.16463242689,0.055774245
0.36096189483277,0.025877209578905,112.36780202267,0.05587968
0.3626805236201,0.025910850784507,111.58796134029,0.055985125
0.36437120882759,0.025944975771305,110.82459283423,0.05609058
0.36603462611664,0.025979572717389,110.07719757873,0.056196045
0.36767143295602,0.026014630119065,109.34529451418,0.05630152
0.36928226913762,0.026050136781843,108.6284197256,0.056407005
0.37086775727951,0.026086081811635,107.92612575185,0.056512500000001
0.37242850331629,0.026122454606179,107.23798092458,0.056618005000001
0.37396509697656,0.026159244846694,106.56356873552,0.056723520000001
0.37547811224777,0.026196442489744,105.90248723112,0.056829045000001
0.37696810782831,0.026234037759339,105.25434843323,0.056934580000001
0.37843562756711,0.026272021139243,104.61877778494,0.057040125000001
0.37988120089088,0.026310383365504,103.99541362026,0.057145680000001
0.38130534321909,0.026349115419199,103.38390665686,0.057251245000001
0.38270855636704,0.026388208519381,102.78391951059,0.057356820000001
0.38409132893715,0.026427654116238,102.19512623112,0.057462405000001
0.3854541366987,0.026467443884455,101.61721185746,0.057568
0.38679744295634,0.026507569716765,101.04987199276,0.057673605
0.3881216989076,0.026548023717701,100.49281239728,0.05777922
0.38942734398965,0.026588798197527,99.945748598877,0.057884845
0.39071480621559,0.026629885666362,99.408405520168,0.05799048
0.39198450250056,0.026671278828474,98.880517121588,0.058096125
0.39323683897798,0.02671297057675,98.361826059628,0.05820178
0.39447221130603,0.026754953987334,97.852083359626,0.058307445000001
0.39569100496496,0.026797222314433,97.351048102359,0.058413120000001
0.39689359554508,0.026839768985275,96.858487123866,0.058518805000001
0.39808034902611,0.026882587595223,96.374174727888,0.058624500000001
0.39925162204788,0.026925671903046,95.897892410335,0.058730205000001
0.40040776217271,0.026969015826326,95.429428595256,0.058835920000001
0.40154910813983,0.027012613437007,94.968578381781,0.058941645000001
0.40267599011192,0.02705645895709,94.515143301518,0.059047380000001
0.40378872991409,0.027100546754443,94.068931085967,0.059153125000001
0.40488764126565,0.027144871338756,93.629755443475,0.059258880000001
0.40597303000465,0.02718942735761,93.197435845296,0.059364645000001
0.40704519430568,0.027234209592669,92.771797320366,0.059470420000001
0.40810442489093,0.027279212955985,92.3526702584,0.059576205
0.40915100523497,0.02732443248642,91.939890220894,0.059682000000001
0.4101852117631,0.027369863346176,91.533297759771,0.059787805
0.41120731404392,0.027415500817426,91.132738243208,0.059893620000001
0.4122175749759,0.02746134029905,90.738061688456,0.059999445000001
0.41321625096838,0.02750737730347,90.349122601223,0.060105280000001
0.41420359211717,0.027553607453577,89.965779821423,0.060211125000001
0.41517984237481,0.027600026479756,89.587896374954,0.060316980000001
0.41614523971577,0.027646630216994,89.215339331271,0.060422845000001
0.4171000162967,0.027693414602075,88.847979666481,0.060528720000001
0.41804439861195,0.027740375670864,88.485692131741,0.060634605000001
0.4189786076444,0.027787509555666,88.128355126701,0.060740500000001
0.41990285901193,0.027834812482662,87.775850577808,0.060846405000001
0.42081736310947,0.027882280769429,87.428063821232,0.060952320000001
0.42172232524695,0.027929910822522,87.084883490232,0.061058245000001
0.42261794578316,0.027977699135136,86.746201406774,0.061164180000001
0.42350442025575,0.028025642284827,86.411912477208,0.061270125000001
0.42438193950738,0.028073736931313,86.081914591843,0.061376080000001
0.42525068980826,0.028121979814322,85.756108528259,0.061482045000001
0.42611085297515,0.028170367751514,85.434397858169,0.061588020000001
0.42696260648689,0.028218897636462,85.116688857753,0.061694005000001
0.42780612359666,0.028267566436684,84.80289042122,0.061800000000001
0.42864157344099,0.028316371191737,84.492913977553,0.061906005000001
0.42946912114568,0.028365309011367,84.186673410265,0.06201202
0.43028892792872,0.028414377073705,83.88408498003,0.062118045000001
0.43110115120025,0.028463572623517,83.585067250119,0.062224080000001
0.43190594465978,0.028512892970509,83.28954101447,0.062330125000001
0.43270345839059,0.028562335487669,82.997429228338,0.062436180000001
0.43349383895152,0.028611897609665,82.708656941368,0.062542245000001
0.43427722946623,0.028661576831283,82.423151233055,0.062648320000001
0.43505376970992,0.028711370705906,82.140841150436,0.062754405000001
0.43582359619367,0.028761276844045,81.861657647966,0.062860500000001
0.43658684224646,0.028811292911898,81.585533529471,0.062966605000001
0.43734363809491,0.028861416629956,81.312403392116,0.063072720000001
0.43809411094085,0.028911645771651,81.042203572282,0.063178845000001
0.43883838503674,0.028961978162028,80.774872093298,0.063284980000001
0.43957658175906,0.029012411676467,80.510348614949,0.063391125000001
0.44030881967973,0.029062944239431,80.248574384703,0.063497280000001
0.4410352146355,0.029113573823255,79.98949219056,0.063603445000001
0.44175587979557,0.029164298446955,79.7330463155,0.063709620000001
0.44247092572738,0.029215116175088,79.479182493446,0.063815805
0.44318046046054,0.029266025116623,79.227847866681,0.063922000000001
0.44388458954915,0.029317023423858,78.978990944686,0.064028205000001
0.44458341613246,0.029368109291352,78.732561564325,0.064134420000001
0.44527704099383,0.029419280954902,78.488510851332,0.064240645000001
0.44596556261823,0.029470536690527,78.246791183059,0.064346880000001
0.44664907724816,0.029521874813498,78.007356152432,0.064453125000001
0.44732767893811,0.029573293677379,77.770160533068,0.064559380000001
0.44800145960762,0.029624791673101,77.535160245526,0.064665645000001
0.44867050909293,0.029676367228059,77.302312324615,0.064771920000001
0.44933491519726,0.029728018805231,77.071574887773,0.064878205000001
0.44999476373983,0.02977974490232,76.842907104432,0.064984500000001
0.45065013860358,0.02983154405092,76.616269166354,0.065090805000001
0.45130112178167,0.029883414815701,76.39162225891,0.065197120000001
0.45194779342277,0.029935355793618,76.168928533242,0.065303445000001
0.4525902318752,0.029987365613137,75.948151079317,0.065409780000001
0.45322851372993,0.030039442933484,75.729253899793,0.065516125000001
0.45386271386245,0.03009158644391,75.512201884714,0.065622480000001
0.45449290547368,0.030143794862979,75.296960786981,0.065728845000001
0.45511916012968,0.030196066937868,75.083497198568,0.065835220000001
0.4557415478005,0.030248401443693,74.871778527469,0.065941605000001
0.45636013689796,0.030300797182842,74.661772975357,0.066048000000001
0.45697499431251,0.030353252984334,74.453449515905,0.066154405000001
0.45758618544915,0.030405767703189,74.246777873772,0.066260820000001
0.45819377426249,0.030458340219815,74.041728504223,0.066367245000001
0.45879782329083,0.030510969439408,73.838272573348,0.066473680000001
0.45939839368953,0.030563654291377,73.636381938892,0.066580125000001
0.45999554526343,0.030616393728765,73.436029131639,0.066686580000001
0.46058933649852,0.030669186727704,73.237187337346,0.066793045000001
0.46117982459283,0.030722032286869,73.039830379234,0.066899520000001
0.46176706548653,0.030774929426955,72.843932700962,0.067006005000001
0.46235111389128,0.030827877190159,72.649469350127,0.067112500000001
0.46293202331891,0.030880874639684,72.456415962239,0.067219005000001
0.46350984610934,0.030933920859243,72.264748745146,0.067325520000001
0.46408463345785,0.03098701495259,72.074444463939,0.067432045000001
0.46465643544164,0.031040156043047,71.885480426275,0.067538580000001
0.46522530104579,0.031093343273055,71.697834468121,0.067645125000001
0.46579127818858,0.031146575803731,71.511484939932,0.067751680000001
0.46635441374615,0.031199852814431,71.326410693187,0.067858245000001
0.46691475357663,0.031253173502337,71.142591067341,0.067964820000001
0.4674723425436,0.031306537082036,70.960005877136,0.068071405000001
0.46802722453909,0.031359942785125,70.778635400269,0.068178000000001
0.46857944250591,0.031413389859816,70.598460365419,0.068284605000001
0.46912903845953,0.031466877570556,70.419461940595,0.068391220000001
0.46967605350941,0.031520405197653,70.24162172183,0.068497845
0.47022052787976,0.031573972036909,70.064921722181,0.068604480000001
0.47076250092993,0.031627577399269,69.889344361031,0.068711125
0.47130201117414,0.031681220610473,69.714872453708,0.06881778
0.47183909630093,0.031734901010712,69.541489201369,0.068924445000001
0.47237379319197,0.031788617954307,69.369178181185,0.06903112
0.47290613794054,0.031842370809376,69.19792333678,0.069137805
0.47343616586953,0.031896158957527,69.027708968944,0.0692445
0.47396391154901,0.031949981793547,68.858519726595,0.069351205
0.47448940881339,0.0320038387251,68.690340597997,0.06945792
0.47501269077814,0.032057729172438,68.523156902204,0.069564645
0.47553378985622,0.03211165256811,68.356954280747,0.06967138
0.47605273777398,0.032165608356688,68.191718689551,0.069778125
0.47656956558678,0.032219595994489,68.027436391054,0.069884880000001
0.47708430369423,0.03227361494931,67.864093946557,0.069991645
0.47759698185502,0.03232766470017,67.701678208771,0.070098420000001
0.4781076292015,0.032381744737052,67.540176314565,0.070205205
0.47861627425379,0.03243585456066,67.379575677911,0.070312
0.4791229449337,0.03248999368217,67.219863983015,0.070418805000001
0.47962766857818,0.032544161622999,67.061029177635,0.070525620000001
0.48013047195259,0.032598357914572,66.903059466573,0.070632445000001
0.48063138126357,0.032652582098094,66.745943305338,0.070739280000001
0.48113042217164,0.032706833724333,66.589669393992,0.070846125
0.48162761980351,0.032761112353403,66.434226671136,0.07095298
0.48212299876409,0.032815417554552,66.279604308071,0.071059845000001
0.48261658314826,0.03286974890596,66.125791703108,0.07116672
0.48310839655232,0.032924105994534,65.972778476027,0.071273605
0.48359846208517,0.032978488415718,65.820554462685,0.0713805
0.48408680237928,0.033032895773294,65.669109709753,0.071487405
0.48457343960139,0.033087327679201,65.518434469611,0.07159432
0.48505839546292,0.033141783753348,65.368519195358,0.071701245
0.48554169123021,0.033196263623438,65.219354535956,0.07180818
0.48602334773444,0.033250766924795,65.070931331509,0.071915125
0.48650338538141,0.033305293300188,64.923240608655,0.07202208
0.48698182416103,0.03335984239967,64.776273576075,0.072129045
0.48745868365662,0.033414413880413,64.630021620134,0.07223602
0.48793398305399,0.033469007406548,64.484476300607,0.072343005
0.48840774115031,0.033523622649012,64.339629346549,0.07245
0.48887997636279,0.033578259285396,64.195472652237,0.072557005
0.48935070673711,0.033632916999794,64.051998273244,0.07266402
0.48981994995576,0.033687595482663,63.909198422594,0.072771045
0.49028772334605,0.033742294430676,63.767065467027,0.07287808
0.49075404388809,0.033797013546588,63.625591923351,0.072985125
0.49121892822245,0.033851752539099,63.484770454896,0.07309218
0.49168239265772,0.033906511122721,63.344593868045,0.073199245
0.49214445317788,0.033961289017652,63.205055108869,0.07330632
0.49260512544954,0.034016085949647,63.066147259834,0.073413405
0.49306442482892,0.034070901649895,62.927863536598,0.0735205
0.49352236636876,0.034125735854902,62.790197284886,0.073627605
0.49397896482505,0.034180588306368,62.653141977447,0.07373472
0.49443423466357,0.034235458751077,62.516691211081,0.073841845
0.49488819006634,0.034290346940781,62.38083870375,0.07394898
0.49534084493789,0.034345252632093,62.245578291758,0.074056125
0.49579221291136,0.034400175586377,62.110903926991,0.07416328
0.49624230735452,0.034455115569644,61.976809674245,0.074270445
0.49669114137562,0.034510072352453,61.843289708608,0.07437762
0.49713872782914,0.034565045709804,61.710338312911,0.074484805
0.49758507932131,0.034620035421045,61.577949875235,0.074592
0.49803020821565,0.034675041269778,61.4461188865,0.074699205
0.49847412663828,0.034730063043758,61.314839938091,0.07480642
0.49891684648315,0.034785100534809,61.184107719553,0.074913645
0.49935837941715,0.034840153538732,61.05391701635,0.07502088
0.49979873688506,0.034895221855215,60.924262707664,0.075128125
0.50023793011448,0.034950305287755,60.79513976426,0.07523538
0.50067597012058,0.035005403643565,60.666543246405,0.075342645
0.5011128677107,0.0350605167335,60.538468301824,0.07544992
0.50154863348901,0.035115644371973,60.410910163724,0.075557205
0.50198327786086,0.03517078637688,60.283864148854,0.0756645
0.50241681103718,0.035225942569522,60.157325655622,0.075771805
0.50284924303872,0.035281112774532,60.031290162244,0.07587912
0.50328058370022,0.0353362968198,59.905753224962,0.075986445
0.50371084267443,0.035391494536403,59.780710476279,0.07609378
0.50414002943614,0.035446705758538,59.656157623251,0.076201125
0.50456815328601,0.03550193032345,59.532090445825,0.07630848
0.50499522335438,0.035557168071368,59.408504795208,0.076415845
0.50542124860501,0.03561241884544,59.285396592278,0.07652322
0.50584623783863,0.035667682491668,59.162761826037,0.076630605
0.50627019969656,0.035722958858848,59.0405965521,0.076738
0.50669314266415,0.035778247798509,58.918896891217,0.076845405
0.50711507507414,0.035833549164851,58.797659027837,0.07695282
0.50753600511,0.035888862814691,58.676879208703,0.077060245
0.50795594080914,0.035944188607404,58.55655374148,0.07716768
0.50837489006611,0.035999526404868,58.436678993422,0.077275125
0.50879286063564,0.036054876071412,58.31725139006,0.07738258
0.50920986013573,0.036110237473758,58.198267413937,0.077490045
0.50962589605052,0.036165610480974,58.07972360336,0.07759752
0.51004097573326,0.036220994964423,57.961616551185,0.077705005
0.51045510640909,0.036276390797711,57.843942903638,0.0778125
0.51086829517781,0.03633179785664,57.726699359158,0.077920005
0.51128054901656,0.036387216019162,57.609882667269,0.07802752
0.51169187478249,0.03644264516533,57.49348962748,0.078135045
0.51210227921534,0.036498085177258,57.377517088207,0.07824258
0.5125117689399,0.036553535939069,57.261961945727,0.078350125
0.51292035046858,0.036608997336859,57.146821143156,0.07845768
0.51332803020371,0.036664469258652,57.032091669449,0.078565245
0.51373481443997,0.036719951594358,56.917770558417,0.07867282
0.51414070936667,0.036775444235733,56.803854887788,0.078780405
0.51454572106999,0.036830947076343,56.690341778267,0.078888
0.51494985553521,0.036886460011519,56.577228392629,0.078995605
0.51535311864883,0.036941982938325,56.46451193484,0.07910322
0.51575551620069,0.036997515755518,56.352189649181,0.079210845
0.51615705388603,0.037053058363514,56.240258819414,0.07931848
0.51655773730749,0.037108610664352,56.128716767951,0.079426125
0.5169575719771,0.037164172561657,56.017560855049,0.07953378
0.51735656331817,0.037219743960613,55.906788478024,0.079641445
0.51775471666719,0.037275324767921,55.796397070487,0.07974912
0.51815203727566,0.037330914891776,55.686384101588,0.079856805
0.51854853031189,0.037386514241829,55.576747075289,0.0799645
0.51894420086276,0.037442122729158,55.467483529644,0.080072205
0.51933905393543,0.037497740266239,55.358591036106,0.08017992
0.51973309445903,0.037553366766918,55.250067198843,0.080287645
0.52012632728628,0.037609002146377,55.14190965407,0.08039538
0.52051875719511,0.037664646321112,55.034116069402,0.080503125
0.52091038889024,0.0377202992089,54.926684143215,0.08061088
0.52130122700471,0.037775960728777,54.819611604032,0.080718645
0.52169127610134,0.037831630801009,54.712896209907,0.08082642
0.52208054067426,0.037887309347067,54.606535747844,0.080934205
0.52246902515031,0.0379429962896,54.500528033211,0.081042
0.52285673389043,0.037998691552415,54.394870909179,0.081149805
0.52324367119108,0.038054395060449,54.289562246168,0.08125762
0.52362984128551,0.038110106739746,54.184599941313,0.081365445
0.52401524834514,0.038165826517435,54.07998191793,0.08147328
0.5243998964808,0.038221554321709,53.975706125008,0.081581125
0.524783789744,0.0382772900818,53.871770536704,0.08168898
0.52516693212814,0.038333033727958,53.768173151852,0.081796845
0.52554932756973,0.038388785191432,53.664911993485,0.08190472
0.52593097994954,0.03844454440445,53.561985108364,0.082012605
0.52631189309377,0.038500311300195,53.459390566522,0.0821205
0.52669207077515,0.038556085812789,53.357126460817,0.082228405
0.52707151671404,0.038611867877272,53.255190906493,0.08233632
0.52745023457951,0.038667657429583,53.153582040755,0.082444245
0.52782822799036,0.038723454406545,53.052298022349,0.08255218
0.52820550051621,0.038779258745842,52.951337031158,0.082660125
0.5285820556784,0.038835070386007,52.8506972678,0.08276808
0.52895789695108,0.038890889266397,52.75037695324,0.082876045
0.52933302776208,0.038946715327186,52.650374328407,0.08298402
0.52970745149388,0.039002548509342,52.550687653827,0.083092005
0.53008117148456,0.039058388754611,52.451315209255,0.0832
0.53045419102862,0.039114236005506,52.352255293319,0.083308005
0.53082651337793,0.039170090205285,52.253506223178,0.08341602
0.53119814174253,0.039225951297942,52.155066334176,0.083524045
0.53156907929152,0.039281819228191,52.056933979513,0.08363208
0.53193932915382,0.039337693941448,51.959107529923,0.083740125
0.53230889441903,0.039393575383822,51.861585373351,0.08384818
0.53267777813817,0.039449463502095,51.764365914648,0.083956245
0.53304598332447,0.039505358243718,51.667447575264,0.08406432
0.53341351295411,0.039561259556788,51.570828792957,0.084172405
0.53378036996693,0.039617167390042,51.474508021495,0.0842805
0.53414655726721,0.039673081692839,51.37848373038,0.084388605
0.53451207772431,0.039729002415155,51.282754404569,0.08449672
0.53487693417337,0.039784929507563,51.1873185442,0.084604845
0.53524112941601,0.039840862921226,51.092174664329,0.08471298
0.53560466622093,0.039896802607886,50.997321294675,0.084821125
0.53596754732461,0.039952748519848,50.90275697936,0.08492928
0.53632977543189,0.040008700609977,50.808480276663,0.085037445
0.53669135321664,0.040064658831677,50.714489758781,0.08514562
0.53705228332227,0.04012062313889,50.620784011588,0.085253805
0.53741256836242,0.040176593486081,50.527361634408,0.085362
0.53777221092145,0.040232569828227,50.434221239781,0.085470205
0.53813121355506,0.040288552120811,50.341361453248,0.08557842
0.5384895787908,0.040344540319809,50.24878091313,0.085686645
0.53884730912862,0.040400534381682,50.156478270318,0.08579488
0.5392044070414,0.040456534263367,50.064452188064,0.085903124999999
0.53956087497547,0.040512539922266,49.972701341777,0.086011379999999
0.5399167153511,0.040568551316243,49.881224418829,0.086119644999999
0.54027193056297,0.040624568403606,49.790020118352,0.086227919999999
0.54062652298071,0.040680591143107,49.699087151056,0.086336204999999
0.54098049494932,0.04073661949393,49.608424239038,0.086444499999999
0.54133384878963,0.040792653415683,49.518030115603,0.086552804999999
0.54168658679881,0.040848692868392,49.427903525082,0.086661119999999
0.54203871125071,0.040904737812489,49.338043222659,0.086769444999999
0.54239022439639,0.04096078820881,49.248447974202,0.086877779999999
0.54274112846448,0.041016844018585,49.159116556094,0.086986124999999
0.54309142566161,0.041072905203429,49.070047755067,0.087094479999999
0.54344111817282,0.041128971725338,48.98124036805,0.087202844999999
0.54379020816195,0.041185043546681,48.892693202001,0.087311219999999
0.544138697772,0.041241120630191,48.804405073763,0.087419604999999
0.54448658912557,0.041297202938964,48.716374809907,0.087527999999999
0.54483388432515,0.041353290436444,48.628601246591,0.087636404999999
0.54518058545356,0.041409383086427,48.541083229409,0.087744819999999
0.54552669457425,0.041465480853046,48.453819613258,0.087853244999999
0.54587221373164,0.041521583700769,48.366809262191,0.087961679999999
0.54621714495153,0.041577691594392,48.28005104929,0.088070124999999
0.54656149024132,0.041633804499036,48.193543856527,0.08817858
0.54690525159045,0.041689922380136,48.10728657464,0.088287044999999
0.54724843097063,0.041746045203439,48.021278102999,0.088395519999999
0.5475910303362,0.041802172935,47.93551734949,0.088504004999999
0.5479330516244,0.041858305541172,47.850003230388,0.088612499999999
0.5482744967557,0.041914442988606,47.764734670234,0.088721004999999
0.54861536763407,0.04197058524424,47.679710601727,0.088829519999999
0.54895566614726,0.042026732275301,47.594929965603,0.088938044999999
0.54929539416709,0.042082884049293,47.510391710524,0.089046579999999
0.54963455354973,0.042139040533999,47.42609479297,0.089155124999999
0.54997314613595,0.042195201697471,47.342038177128,0.089263679999999
0.55031117375139,0.042251367508028,47.258220834788,0.089372244999999
0.55064863820679,0.042307537934251,47.17464174524,0.089480819999999
0.5509855412983,0.042363712944977,47.091299895173,0.089589404999999
0.55132188480766,0.042419892509299,47.008194278571,0.089697999999999
0.55165767050248,0.042476076596558,46.925323896625,0.089806604999999
0.55199290013646,0.04253226517634,46.842687757625,0.089915219999999
0.5523275754496,0.042588458218471,46.760284876878,0.090023844999999
0.55266169816847,0.042644655693015,46.678114276606,0.090132479999999
0.5529952700064,0.04270085757027,46.596174985866,0.090241124999999
0.55332829266369,0.042757063820762,46.514466040454,0.090349779999999
0.55366076782783,0.042813274415242,46.432986482822,0.090458444999999
0.55399269717373,0.042869489324687,46.351735361991,0.090567119999999
0.55432408236386,0.042925708520287,46.27071173347,0.090675804999999
0.55465492504851,0.042981931973452,46.189914659174,0.090784499999999
0.55498522686596,0.043038159655802,46.109343207343,0.090893204999999
0.55531498944266,0.043094391539164,46.028996452462,0.091001919999999
0.55564421439344,0.043150627595571,45.948873475188,0.091110644999999
0.55597290332164,0.04320686779726,45.868973362271,0.091219379999999
0.55630105781936,0.043263112116663,45.78929520648,0.091328124999999
0.55662867946759,0.043319360526412,45.709838106534,0.091436879999999
0.55695576983636,0.043375612999329,45.630601167026,0.091545644999999
0.55728233048498,0.043431869508426,45.551583498355,0.091654419999999
0.55760836296211,0.043488130026904,45.472784216656,0.091763204999999
0.55793386880602,0.043544394528145,45.394202443734,0.091871999999999
0.55825884954464,0.043600662985716,45.315837306999,0.091980804999999
0.5585833066958,0.043656935373361,45.237687939398,0.092089619999999
0.55890724176736,0.043713211664999,45.159753479353,0.092198444999999
0.55923065625731,0.043769491834725,45.082033070694,0.092307279999999
0.55955355165398,0.043825775856804,45.004525862608,0.092416124999999
0.55987592943613,0.043882063705669,44.927231009566,0.092524979999999
0.56019779107313,0.043938355355919,44.850147671273,0.092633844999999
0.56051913802506,0.043994650782317,44.773275012605,0.092742719999999
0.56083997174286,0.04405094995979,44.696612203552,0.092851604999999
0.56116029366847,0.044107252863419,44.620158419165,0.092960499999999
0.56148010523493,0.044163559468446,44.543912839498,0.093069404999999
0.56179940786652,0.044219869750267,44.467874649553,0.093178319999999
0.56211820297889,0.04427618368443,44.392043039231,0.093287244999999
0.56243649197917,0.044332501246632,44.316417203274,0.093396179999999
0.5627542762661,0.044388822412722,44.240996341217,0.093505124999999
0.56307155723012,0.044445147158691,44.16577965734,0.093614079999999
0.56338833625349,0.044501475460678,44.090766360611,0.093723044999999
0.56370461471043,0.044557807294963,44.015955664642,0.093832019999999
0.5640203939672,0.044614142637967,43.941346787645,0.093941004999999
0.5643356753822,0.044670481466248,43.866938952374,0.094049999999999
0.5646504603061,0.044726823756505,43.79273138609,0.094159004999999
0.56496475008192,0.044783169485566,43.718723320508,0.094268019999999
0.56527854604514,0.044839518630399,43.644913991754,0.094377044999999
0.56559184952379,0.044895871168098,43.571302640323,0.094486079999999
0.56590466183857,0.04495222707589,43.497888511033,0.094595124999999
0.56621698430291,0.04500858633113,43.424670852985,0.094704179999999
0.56652881822308,0.045064948911298,43.351648919519,0.094813244999999
0.56684016489829,0.045121314794002,43.278821968173,0.094922319999999
0.56715102562075,0.045177683956971,43.206189260643,0.095031404999999
0.56746140167579,0.045234056378057,43.133750062743,0.095140499999999
0.56777129434191,0.045290432035232,43.061503644365,0.095249604999999
0.56808070489092,0.045346810906587,42.989449279443,0.095358719999999
0.56838963458794,0.045403192970332,42.917586245913,0.095467844999999
0.56869808469156,0.045459578204791,42.845913825673,0.095576979999999
0.56900605645386,0.045515966588405,42.774431304551,0.095686124999999
0.56931355112053,0.045572358099726,42.703137972265,0.095795279999999
0.56962056993093,0.04562875271742,42.632033122393,0.095904444999999
0.56992711411815,0.045685150420264,42.561116052329,0.096013619999999
0.57023318490909,0.045741551187143,42.490386063257,0.096122804999999
0.57053878352455,0.04579795499705,42.419842460109,0.096231999999999
0.57084391117929,0.045854361829088,42.349484551541,0.096341204999999
0.57114856908208,0.045910771662462,42.27931164989,0.096450419999999
0.57145275843579,0.045967184476484,42.20932307115,0.096559644999999
0.57175648043747,0.046023600250569,42.139518134933,0.096668879999999
0.57205973627836,0.046080018964235,42.069896164442,0.096778124999999
0.57236252714401,0.046136440597098,42.00045648644,0.096887379999999
0.57266485421432,0.046192865128879,41.931198431215,0.096996644999999
0.57296671866361,0.046249292539393,41.862121332556,0.097105919999999
0.57326812166066,0.046305722808558,41.793224527716,0.097215204999999
0.5735690643688,0.046362155916384,41.724507357392,0.097324499999999
0.57386954794592,0.046418591842979,41.655969165686,0.097433804999999
0.57416957354459,0.046475030568548,41.587609300085,0.097543119999999
0.57446914231208,0.046531472073386,41.519427111427,0.097652444999999
0.57476825539041,0.046587916337883,41.451421953877,0.097761779999999
0.57506691391642,0.046644363342522,41.383593184898,0.097871124999999
0.57536511902181,0.046700813067874,41.315940165225,0.097980479999999
0.57566287183321,0.046757265494603,41.248462258838,0.098089844999999
0.57596017347221,0.04681372060346,41.181158832937,0.098199219999999
0.57625702505544,0.046870178375286,41.114029257912,0.098308604999999
0.57655342769458,0.046926638791009,41.047072907325,0.098417999999999
0.57684938249643,0.046983101831642,40.980289157877,0.098527404999999
0.57714489056297,0.047039567478286,40.913677389389,0.098636819999999
0.57743995299139,0.047096035712127,40.847236984776,0.098746244999999
0.57773457087413,0.047152506514432,40.780967330022,0.098855679999999
0.57802874529895,0.047208979866554,40.714867814155,0.098965124999999
0.57832247734895,0.04726545574993,40.648937829228,0.099074579999999
0.57861576810262,0.047321934146074,40.583176770291,0.099184044999999
0.5789086186339,0.047378415036585,40.517584035373,0.099293519999999
0.57920103001219,0.047434898403141,40.452159025454,0.099403004999999
0.57949300330243,0.047491384227499,40.386901144448,0.099512499999999
0.5797845395651,0.047547872491496,40.321809799175,0.099622004999999
0.58007563985631,0.047604363177046,40.256884399346,0.099731519999999
0.58036630522778,0.047660856266141,40.19212435754,0.099841044999999
0.58065653672692,0.04771735174085,40.127529089177,0.099950579999999
0.58094633539688,0.047773849583317,40.063098012504,0.100060125
0.58123570227652,0.047830349775761,39.998830548572,0.10016968
0.58152463840053,0.047886852300479,39.934726121216,0.100279245
0.58181314479942,0.047943357139838,39.870784157032,0.10038882
0.58210122249954,0.047999864276282,39.807004085362,0.100498405
0.58238887252318,0.048056373692325,39.74338533827,0.100608
0.58267609588854,0.048112885370554,39.679927350528,0.100717605
0.58296289360978,0.048169399293629,39.616629559588,0.10082722
0.58324926669707,0.04822591544428,39.553491405574,0.100936845
0.58353521615662,0.048282433805308,39.490512331255,0.10104648
0.5838207429907,0.048338954359583,39.427691782028,0.101156125
0.58410584819769,0.048395477090045,39.365029205904,0.10126578
0.58439053277207,0.048452001979702,39.302524053485,0.101375445
0.58467479770452,0.048508529011632,39.24017577795,0.10148512
0.58495864398187,0.04856505816898,39.177983835031,0.101594805
0.58524207258722,0.048621589434956,39.115947683007,0.1017045
0.58552508449986,0.04867812279284,39.054066782674,0.101814205
0.58580768069542,0.048734658225975,38.992340597335,0.10192392
0.5860898621458,0.048791195717774,38.930768592784,0.102033645
0.58637162981924,0.04884773525171,38.869350237285,0.10214338
0.58665298468036,0.048904276811323,38.808085001558,0.102253125
0.58693392769015,0.048960820380219,38.746972358763,0.10236288
0.58721445980605,0.049017365942065,38.686011784484,0.102472645
0.58749458198191,0.049073913480593,38.625202756711,0.10258242
0.58777429516807,0.049130462979595,38.564544755825,0.102692205
0.58805360031136,0.049187014422929,38.504037264584,0.102802
0.58833249835514,0.049243567794513,38.443679768105,0.102911805
0.5886109902393,0.049300123078327,38.383471753854,0.10302162
0.58888907690033,0.04935668025841,38.323412711622,0.103131445
0.58916675927129,0.049413239318864,38.263502133518,0.10324128
0.58944403828187,0.049469800243851,38.203739513951,0.103351125
0.58972091485841,0.049526363017591,38.144124349614,0.10346098
0.58999738992389,0.049582927624365,38.084656139472,0.103570845
0.59027346439802,0.049639494048512,38.025334384749,0.10368072
0.59054913919719,0.04969606227443,37.966158588906,0.103790605
0.59082441523454,0.049752632286575,37.907128257639,0.1039005
0.59109929341996,0.04980920406946,37.848242898852,0.104010405
0.59137377466013,0.049865777607656,37.789502022653,0.10412032
0.59164785985851,0.049922352885792,37.730905141339,0.104230245
0.5919215499154,0.049978929888552,37.672451769377,0.10434018
0.59219484572793,0.050035508600676,37.614141423393,0.104450125
0.5924677481901,0.050092089006961,37.555973622164,0.10456008
0.59274025819279,0.05014867109226,37.497947886599,0.104670045
0.59301237662377,0.050205254841479,37.440063739726,0.10478002
0.59328410436777,0.050261840239581,37.382320706683,0.104890005
0.59355544230641,0.050318427271582,37.3247183147,0.105
