d,ep,stress_yy,total_strain_yy
0,0,0,0
0,0,6.8797190688834,0.00010000499999996
0,0,13.758876406685,0.00020001999999997
0,0,20.637472210044,0.00030004499999992
0,0,27.515506675558,0.00040007999999991
0,0,34.392979999647,0.00050012499999996
0,0,41.269892378663,0.00060017999999995
0,0,48.146244008907,0.00070024499999988
0,0,55.022035086568,0.00080031999999997
0,0,61.897265807699,0.00090040499999988
0,0,68.771936368286,0.0010004999999998
0,0,75.646046964208,0.0011006050000001
0,0,82.519597791284,0.00120072
0,0,89.392589045164,0.0013008450000001
0,0,96.265020921448,0.0014009800000001
0,0,103.13689361571,0.0015011250000001
0,0,110.00820732331,0.00160128
0,0,116.87896223956,0.001701445
0,0,123.74915855968,0.0018016200000001
0,0,130.61879647882,0.001901805
0,0,137.48787619199,0.0020019999999999
0,0,144.35639789413,0.002102205
0,0,151.22436178007,0.0022024199999999
0,0,158.09176804461,0.002302645
0,0,164.9586168823,0.00240288
0,0,171.82490848776,0.0025031249999999
0,0,178.69064305547,0.0026033799999999
0,0,185.55582077975,0.002703645
0,0,192.42044185489,0.00280392
0,0,199.28450647504,0.0029042049999999
0,0,206.14801483432,0.0030044999999999
0,0,213.01096712673,0.0031048050000001
0,0,219.8733635461,0.0032051200000001
0,0,226.7352042863,0.0033054450000001
0,0,233.59648954101,0.00340578
0,0,240.45721950385,0.003506125
0,0,247.3173943683,0.0036064800000001
0,0,254.17701432781,0.0037068450000001
0,0,261.03607957571,0.00380722
0,0,267.89459030523,0.003907605
0,0,274.75254670952,0.004008
0,0,281.60994898159,0.004108405
0,0,288.46679731447,0.00420882
0,0,295.32309190096,0.004309245
0,0,302.17883293384,0.00440968
0,0,309.03402060575,0.0045101249999999
0,0,315.88865510935,0.0046105799999999
0,3.1362790300889e-05,319.51666031667,0.004711045
0,9.7549931077492e-05,319.56205353714,0.00481152
0,0.00016373052342964,319.60744224617,0.0049120049999999
0,0.00022990456865699,319.65282644462,0.0050124999999999
0,0.00029607206805886,319.69820613339,0.0051130050000001
0,0.00036223302293344,319.74358131341,0.0052135200000001
0,0.0004283874345793,319.78895198557,0.0053140450000001
0,0.0004945353042943,319.83431815073,0.0054145800000001
0,0.00056067663337608,319.8796798098,0.0055151250000001
0,0.00062681142312189,319.92503696369,0.00561568
0,0.00069293967482823,319.97038961329,0.005716245
0,0.00075906138979166,320.01573775949,0.0058168200000001
0,0.00082517656930806,320.0610814032,0.005917405
0,0.00089128521467318,320.10642054529,0.006018
0,0.00095738732718205,320.15175518668,0.0061186049999999
0,0.0010234829081297,320.19708532824,0.00621922
0,0.0010895719588104,320.24241097089,0.0063198449999999
0,0.0011556544805185,320.28773211551,0.0064204799999999
0,0.0012217304745473,320.33304876299,0.0065211249999999
0,0.0012877999421905,320.37836091422,0.0066217799999999
0,0.0013538628847407,320.42366857009,0.006722445
0,0.0014199193034906,320.46897173151,0.00682312
0,0.0014859691997321,320.51427039937,0.0069238049999999
0,0.0015520125747572,320.55956457454,0.0070244999999999
0,0.0016180494298573,320.60485425795,0.0071252049999999
0,0.0016840797663234,320.65013945046,0.0072259200000001
0,0.0017501035854459,320.69542015295,0.0073266450000001
0,0.0018161208885151,320.74069636634,0.0074273800000001
0,0.001882131676821,320.78596809151,0.0075281250000001
0,0.001948135951653,320.83123532935,0.0076288800000001
0,0.0020141337142998,320.87649808076,0.0077296450000001
0,0.0020801249660506,320.92175634661,0.00783042
0,0.0021461097081934,320.96701012781,0.007931205
0,0.0022120879420163,321.01225942525,0.008032
0,0.0022780596688069,321.05750423979,0.008132805
0,0.0023440248898522,321.10274457233,0.0082336199999999
0,0.0024099836064389,321.14798042379,0.008334445
0,0.0024759358198536,321.19321179503,0.0084352799999999
0,0.0025418815313822,321.23843868692,0.008536125
0,0.0026078207423103,321.28366110039,0.0086369799999999
0,0.0026737534539233,321.3288790363,0.008737845
0,0.002739679667506,321.37409249554,0.00883872
0,0.0028055993843428,321.41930147903,0.0089396049999999
0,0.0028715126057179,321.46450598759,0.0090404999999999
0,0.0029374193329151,321.50970602216,0.0091414049999999
0,0.0030033195672174,321.55490158363,0.0092423199999999
0,0.0030692133099083,321.60009267286,0.0093432450000001
0,0.0031351005622699,321.64527929071,0.00944418
0,0.0032009813255847,321.69046143813,0.009545125
0,0.0032668556011343,321.73563911595,0.00964608
0,0.0033327233902003,321.78081232509,0.009747045
0,0.0033985846940637,321.82598106642,0.0098480200000001
0,0.0034644395140052,321.87114534082,0.0099490050000001
0,0.0035302878513052,321.91630514919,0.01005
0,0.0035961297072435,321.96146049241,0.010151005
0,0.0036619650830998,322.00661137133,0.01025202
0,0.0037277939801529,322.05175778689,0.010353045
0,0.003793616399682,322.09689973993,0.01045408
0,0.0038594323429652,322.14203723135,0.010555125
0,0.0039252418112807,322.18717026202,0.01065618
0,0.0039910448059061,322.23229883287,0.010757245
0,0.0040568413281187,322.27742294468,0.01085832
0,0.0041226313791955,322.32254259843,0.010959405
0,0.0041884149604127,322.36765779497,0.0110605
0,0.0042541920730466,322.41276853518,0.011161605
0,0.004319962718373,322.45787481992,0.01126272
0,0.0043857268976673,322.50297665009,0.011363845
0,0.0044514846122046,322.54807402657,0.01146498
0,0.0045172358632593,322.59316695026,0.011566125
0,0.0045829806521057,322.63825542201,0.01166728
0,0.0046487189800177,322.6833394427,0.011768445
0,0.0047144508482687,322.72841901321,0.01186962
0,0.0047801762581321,322.77349413445,0.011970805
0,0.0048458952108804,322.81856480727,0.012072
0,0.0049116077077859,322.86363103255,0.012173205
0,0.0049773137501208,322.90869281117,0.01227442
0,0.0050430133391568,322.95375014399,0.012375645
0,0.0051087064761648,322.99880303194,0.01247688
0,0.0051743931624159,323.04385147587,0.012578125
0,0.0052400733991804,323.08889547662,0.01267938
0,0.0053057471877285,323.13393503511,0.012780645
0,0.0053714145293301,323.17897015223,0.01288192
0,0.0054370754252544,323.22400082879,0.012983205
0,0.0055027298767704,323.26902706575,0.0130845
0,0.0055683778851464,323.31404886395,0.013185805
0,0.0056340194516511,323.35906622422,0.01328712
0,0.0056996545775522,323.40407914749,0.013388445
0,0.0057652832641171,323.44908763465,0.01348978
0,0.0058309055126132,323.49409168651,0.013591125
0,0.0058965213243069,323.53909130401,0.01369248
0,0.0059621307004644,323.58408648799,0.013793845
0,0.0060277336423521,323.62907723931,0.01389522
0,0.0060933301512353,323.67406355888,0.013996605
2.1427520727151e-05,0.0061587601055018,323.69064626916,0.014098
8.5326537463008e-05,0.0062238662635913,323.65092216935,0.014199405
0.00019067923389833,0.0062886562602233,323.55624021599,0.01430082
0.00033647339336797,0.0063531376875961,323.4079652643,0.014402245
0.00052170306945239,0.0064173180903802,323.20747533895,0.01450368
0.00074536907515455,0.0064812049620677,322.9561592063,0.014605125
0.0010064794350678,0.0065448057415985,322.65541405685,0.01470658
0.0013040498275409,0.0066081278100612,322.30664326207,0.014808045
0.0016371040176491,0.0066711784874643,321.91125420424,0.01490952
0.0020046742816058,0.0067339650295695,321.47065617878,0.015011005
0.0024058018227778,0.0067964946247904,320.98625836797,0.0151125
0.0028395371797089,0.0068587743911487,320.45946788586,0.015214005
0.003304940625693,0.0069208113732959,319.89168789419,0.01531552
0.0038010825598006,0.0069826125395982,319.28431578961,0.015417045
0.0043270438888546,0.0070441847792886,318.63874146215,0.01551858
0.0048819163997666,0.0071055348996928,317.95634562569,0.015620125
0.0054648031214852,0.0071666696235314,317.23849822064,0.01572168
0.0060748186758543,0.0072275955863064,316.48655688987,0.015823245
0.0067110896164119,0.0072883193337767,315.7018655284,0.01592482
0.0073727547544673,0.0073488473195312,314.88575290702,0.016026405
0.0080589654712288,0.0074091859026627,314.03953137148,0.016128
0.0087688860154816,0.0074693413455539,313.16449561669,0.016229605
0.009501693785503,0.0075293198117787,312.26192153729,0.01633122
0.010256579594863,0.0075891273641243,311.33306515415,0.016432845
0.011032747920897,0.007648769962745,310.3791616175,0.01653448
0.011829417135397,0.007708253463446,309.40142428625,0.016636125
0.012645819716752,0.0077675836161086,308.40104388373,0.01673778
0.013481202443085,0.0078267660632559,307.37918772879,0.016839445
0.014334826565747,0.0078858063387657,306.33699904229,0.01694112
0.015205967962982,0.0079447098667326,305.27559632747,0.017042805
0.016093917273256,0.0080034819604806,304.19607282387,0.0171445
0.016997980008373,0.0080621278217286,303.09949603257,0.017246205
0.017917476645916,0.0081206525399082,301.98690731217,0.01734792
0.018851742701371,0.008179061091636,300.85932154302,0.017449645
0.019800128779788,0.0082373583403369,299.71772685852,0.01755138
0.020762000607343,0.0082955490360173,298.56308444065,0.017653125
0.021736739042952,0.0083536378151901,297.39632837828,0.01775488
0.022723740070366,0.0084116292009426,296.21836558537,0.017856645
0.023722414771353,0.0084695276031471,295.0300757764,0.01795842
0.02473218928003,0.0085273373188116,293.8323114973,0.018060205
0.025752504719521,0.0085850625325643,292.62589820789,0.018162
0.026782817121022,0.0086427073172666,291.41163441437,0.018263805
0.027822597326359,0.0087002756347523,290.19029184796,0.01836562
0.028871330874529,0.0087577713366845,288.96261568747,0.018467445
0.029928517873135,0.0088151981655259,287.72932482262,0.01856928
0.030993672855427,0.0088725597556172,286.49111215534,0.018671125
0.032066324623781,0.0089298596343554,285.24864493611,0.01877298
0.033146016080515,0.0089871012234676,284.00256513268,0.018874845
0.034232304046825,0.009044287840374,282.75348982778,0.01897672
0.035324759070692,0.009101422699631,281.50201164415,0.019078605
0.036422965224725,0.0091585089144519,280.24869919283,0.0191805
0.037526519894638,0.0092155494982958,278.99409754334,0.019282405
0.038635033559325,0.0092725473665203,277.7387287125,0.01938432
0.039748129563353,0.009329505338089,276.48309216952,0.019486245
0.040865443882615,0.0093864261373321,275.22766535534,0.01958818
0.041986624883986,0.0094433123957506,273.97290421365,0.019690125
0.043111333079883,0.0095001666538574,272.71924373161,0.01979208
0.044239240878119,0.0095569913630557,271.4670984882,0.019894045
0.045370032328345,0.0096137888875407,270.21686320827,0.01999602
0.046503402865124,0.0096705615062274,268.96891332057,0.020098005
0.047639059048838,0.0097273114146938,267.723605518,0.0202
0.048776718304788,0.009784040727138,266.48127831837,0.020302005
0.049916108661172,0.0098407514783432,265.24225262453,0.02040402
0.051056968486422,0.0098974456256475,264.00683228222,0.020506045
0.052199046226647,0.0099541250509125,262.77530463445,0.02060808
0.053342100143447,0.010010791562489,261.54794107131,0.020710125
0.054485898052719,0.010067446897174,260.32499757419,0.02081218
0.05563021706482,0.010124092722162,259.10671525339,0.020914245
0.056774843326654,0.010180730636975,257.89332087815,0.02101632
0.05791957176573,0.010237362175381,256.6850273987,0.021118405
0.05906420583699,0.010293988807295,255.48203445915,0.0212205
0.06020855727232,0.01035061194065,254.284528901,0.021322605
0.061352445833229,0.010407232923259,253.09268525665,0.02142472
0.062495699067022,0.010463853044634,251.9066662323,0.021526845
0.063638152066495,0.010520473537793,250.72662318009,0.02162898
0.064779647233586,0.010577095581027,249.55269655895,0.021731125
0.065920034046988,0.010633720299643,248.38501638407,0.02183328
0.067059168833998,0.010690348767672,247.22370266465,0.021935445
0.068196914546736,0.010746982009551,246.0688658299,0.02203762
0.069333140542796,0.010803621001757,244.92060714305,0.022139805
0.070467722370482,0.010860266674425,243.77901910341,0.022242
0.071600541558718,0.010916919912916,242.64418583649,0.022344205
0.072731485411649,0.010973581559361,241.51618347202,0.02244642
0.073860446808059,0.011030252414156,240.3950805101,0.022548645
0.074987324005566,0.011086933237438,239.28093817547,0.02265088
0.07611202044963,0.011143624750509,238.17381076018,0.022753125
0.077234444587495,0.011200327637231,237.07374595434,0.02285538
0.078354509686859,0.011257042545387,235.98078516571,0.022957645
0.079472133659437,0.011313770088,234.89496382784,0.02305992
0.080587238889351,0.011370510844617,233.81631169721,0.023162205
0.081699752066222,0.011427265362564,232.7448531393,0.0232645
0.08280960402305,0.011484034158157,231.68060740428,0.023366805
0.083916729578746,0.011540817717881,230.62358889197,0.02346912
0.085021067385328,0.011597616499534,229.57380740679,0.023571445
0.086122559779648,0.011654430933342,228.53126840262,0.02367378
0.087221152639667,0.011711261423029,227.49597321807,0.023776125
0.088316795245079,0.011768108346866,226.4679193022,0.02387848
0.089409440142426,0.011824972058678,225.44710043107,0.023980845
0.090499043014361,0.011881852888825,224.43350691544,0.02408322
0.091585562553181,0.011938751145147,223.42712579967,0.024185605
0.092668960338459,0.011995667113883,222.42794105228,0.024288
0.093749200718667,0.012052601060555,221.43593374842,0.024390405
0.094826250696834,0.012109553230826,220.4510822443,0.02449282
0.095900079819919,0.012166523851327,219.47336234419,0.024595245
0.096970660072043,0.012223513130457,218.50274745988,0.02469768
0.098037965771351,0.012280521259156,217.53920876309,0.024800125
0.099101973470468,0.012337548411651,216.58271533105,0.02490258
0.10016266186039,0.012394594746173,215.63323428538,0.025005045
0.10122001167781,0.012451660405651,214.69073092461,0.02510752
0.10227400561576,0.012508745518386,213.7551688505,0.025210005
0.10332462823743,0.01256585019869,212.82651008861,0.0253125
0.10437186589303,0.012622974547512,211.90471520293,0.025415005
0.10541570663988,0.012680118653036,210.98974340517,0.02551752
0.10645614016524,0.012737282591257,210.08155265878,0.025620045
0.1074931577121,0.012794466426539,209.18009977787,0.02572258
0.1085267520077,0.012851670212148,208.2853405213,0.025825125
0.10955691719475,0.012908893990769,207.39722968208,0.02592768
0.11058364876521,0.012966137795001,206.51572117232,0.026030245
0.11160694349669,0.013023401647831,205.64076810387,0.02613282
0.11262679939109,0.013080685563096,204.77232286493,0.026235405
0.11364321561586,0.013137989545923,203.91033719259,0.026338
0.11465619244728,0.013195313593152,203.05476224169,0.026440605
0.11566573121616,0.013252657693742,202.20554865005,0.02654322
0.1166718342555,0.013310021829164,201.36264660029,0.026645845
0.11767450485034,0.013367405973779,200.52600587827,0.02674848
0.11867374718952,0.013424810095191,199.6955759284,0.026851125
0.11966956631943,0.013482234154604,198.87130590598,0.02695378
0.12066196809952,0.013539678107146,198.0531447266,0.027056445
0.12165095915969,0.013597141902192,197.2410411128,0.02715912
0.12263654685935,0.013654625483672,196.43494363815,0.027261805
0.12361873924821,0.01371212879036,195.63480076874,0.0273645
0.1245975450286,0.013769651756159,194.84056090235,0.027467205
0.12557297351941,0.013827194310371,194.05217240524,0.02756992
0.12654503462145,0.013884756377954,193.2695836469,0.027672645
0.1275137387843,0.013942337879774,192.49274303264,0.02777538
0.12847909697458,0.013999938732837,191.72159903419,0.027878125
0.12944112064545,0.014057558850524,190.95610021846,0.02798088
0.1303998217075,0.014115198142801,190.19619527448,0.028083645
0.1313552125008,0.014172856516436,189.44183303866,0.02818642
0.13230730576824,0.014230533875193,188.6929625184,0.028289205
0.13325611462986,0.014288230120026,187.94953291414,0.028392
0.13420165255847,0.014345945149261,187.21149364004,0.028494805
0.13514393335617,0.014403678858774,186.4787943431,0.02859762
0.13608297113201,0.014461431142154,185.75138492107,0.028700445
0.13701878028053,0.014519201890866,185.02921553912,0.02880328
0.13795137546136,0.014576990994404,184.31223664518,0.028906125
0.13888077157961,0.014634798340438,183.60039898429,0.02900898
0.1398069837672,0.014692623814951,182.89365361178,0.029111845
0.14073002736505,0.014750467302374,182.19195190543,0.02921472
0.14164991790596,0.014808328685715,181.49524557672,0.029317605
0.14256667109844,0.014866207846679,180.8034866811,0.0294205
0.1434803028111,0.014924104665785,180.11662762739,0.029523405
0.14439082905791,0.014982019022474,179.43462118641,0.02962632
0.14529826598402,0.01503995079522,178.75742049876,0.029729245
0.14620262985231,0.015097899861626,178.08497908187,0.02983218
0.14710393703058,0.015155866098521,177.41725083645,0.029935125
0.14800220397928,0.015213849382052,176.75419005206,0.03003808
0.14889744723989,0.015271849587774,176.09575141229,0.030141045
0.14978968342382,0.015329866590727,175.44188999925,0.03024402
0.15067892920186,0.01538790026552,174.79256129741,0.030347005
0.15156520129411,0.015445950486402,174.14772119708,0.03045
0.15244851646049,0.015504017127336,173.50732599726,0.030553005
0.15332889149159,0.01556210006207,172.8713324081,0.03065602
0.15420634320011,0.015620199164192,172.23969755288,0.030759045
0.15508088841265,0.015678314307201,171.61237896958,0.03086208
0.15595254396188,0.01573644536456,170.98933461206,0.030965125
0.15682132667925,0.015794592209752,170.37052285086,0.03106818
0.15768725338795,0.015852754716333,169.75590247372,0.031171245
0.15855034089629,0.015910932757981,169.14543268561,0.03127432
0.15941060599141,0.015969126208543,168.53907310868,0.031377405
0.16026806543334,0.016027334942078,167.93678378177,0.0314805
0.16112273594941,0.016085558832902,167.33852515961,0.031583605
0.16197463422889,0.016143797755626,166.74425811199,0.03168672
0.16282377691799,0.016202051585193,166.15394392246,0.031789845
0.16367018061515,0.016260320196913,165.56754428689,0.03189298
0.16451386186651,0.016318603466499,164.98502131191,0.031996125
0.16535483716178,0.016376901270095,164.40633751306,0.03209928
0.1661931229302,0.016435213484309,163.83145581276,0.032202445
0.16702873553687,0.016493539986237,163.2603395382,0.03230562
0.16786169127921,0.016551880653493,162.69295241897,0.032408805
0.1686920063837,0.01661023536423,162.12925858469,0.032512
0.16951969700279,0.016668603997165,161.56922256232,0.032615205
0.17034477921202,0.016726986431602,161.0128092735,0.03271842
0.17116726900733,0.016785382547449,160.45998403177,0.032821645
0.17198718230254,0.016843792225236,159.91071253957,0.03292488
0.172804534927,0.016902215346136,159.3649608853,0.033028125
0.17361934262345,0.016960651791981,158.82269554017,0.03313138
0.17443162104596,0.017019101445274,158.28388335504,0.033234645
0.17524138575806,0.017077564189204,157.74849155719,0.03333792
0.17604865223104,0.01713603990766,157.216487747,0.033441205
0.17685343584233,0.017194528485243,156.68783989457,0.0335445
0.17765575187405,0.017253029807276,156.16251633631,0.033647805
0.17845561551165,0.017311543759812,155.64048577149,0.03375112
0.17925304184274,0.017370070229649,155.12171725874,0.033854445
0.18004804585593,0.01742860910433,154.60618021251,0.03395778
0.18084064243984,0.017487160272158,154.09384439945,0.034061125
0.1816308463822,0.017545723622197,153.58467993496,0.03416448
0.18241867236908,0.017604299044283,153.07865727942,0.034267845
0.18320413498413,0.017662886429025,152.57574723465,0.03437122
0.18398724870799,0.017721485667811,152.0759209403,0.034474605
0.18476802791773,0.017780096652813,151.5791498701,0.034578
0.18554648688641,0.017838719276988,151.08540582832,0.034681405
0.1863226397827,0.017897353434084,150.59466094601,0.03478482
0.18709650067053,0.017955999018641,150.10688767744,0.034888245
0.18786808350889,0.018014655925989,149.62205879639,0.03499168
0.18863740215163,0.018073324052256,149.14014739249,0.035095125
0.18940447034733,0.018132003294365,148.66112686764,0.03519858
0.19016930173927,0.018190693550034,148.18497093234,0.035302045
0.1909319098654,0.018249394717775,147.71165360208,0.03540552
0.19169230815841,0.018308106696899,147.24114919376,0.035509005
0.19245050994579,0.018366829387509,146.77343232207,0.0356125
0.19320652845001,0.018425562690503,146.30847789597,0.035716005
0.19396037678869,0.018484306507568,145.84626111508,0.03581952
0.19471206797484,0.018543060741186,145.38675746625,0.035923045
0.19546161491709,0.018601825294622,144.92994271994,0.03602658
0.19620903042007,0.018660600071929,144.47579292687,0.036130125
0.19695432718468,0.018719384977945,144.02428441443,0.03623368
0.19769751780849,0.018778179918285,143.57539378338,0.036337245
0.19843861478614,0.018836984799343,143.12909790436,0.03644082
0.1991776305098,0.018895799528287,142.68537391454,0.036544405
0.19991457726958,0.018954624013054,142.2441992143,0.036648
0.20064946725408,0.019013458162348,141.80555146391,0.036751605
0.20138231255083,0.019072301885638,141.3694085802,0.03685522
0.20211312514687,0.019131155093149,140.93574873338,0.036958845
0.2028419169293,0.019190017695861,140.50455034374,0.03706248
0.20356869968585,0.019248889605505,140.07579207851,0.037166125
0.20429348510545,0.019307770734558,139.64945284869,0.03726978
0.20501628477887,0.019366660996236,139.22551180593,0.037373445
0.20573711019932,0.019425560304494,138.8039483394,0.03747712
0.20645597276311,0.019484468574017,138.38474207276,0.037580805
0.20717288377028,0.019543385720216,137.96787286115,0.0376845
0.20788785442529,0.019602311659225,137.55332078816,0.037788205
0.20860089583767,0.019661246307893,137.14106616287,0.03789192
0.20931201902271,0.019720189583782,136.73108951695,0.037995645
0.21002123490217,0.019779141405158,136.32337160174,0.03809938
0.21072855430499,0.01983810169099,135.91789338543,0.038203125
0.21143398796797,0.019897070360939,135.51463605018,0.03830688
0.21213754653651,0.019956047335359,135.11358098936,0.038410645
0.21283924056534,0.020015032535286,134.71470980481,0.03851442
0.21353908051923,0.020074025882438,134.31800430409,0.038618205
0.21423707677374,0.020133027299202,133.92344649776,0.038722
0.21493323961597,0.020192036708636,133.5310185968,0.038825805
0.21562757924525,0.020251054034459,133.14070300993,0.03892962
0.21632010577395,0.020310079201047,132.75248234104,0.039033445
0.2170108292282,0.020369112133426,132.36633938661,0.03913728
0.21769975954863,0.020428152757268,131.98225713323,0.039241125
0.21838690659113,0.020487200998883,131.60021875506,0.03934498
0.21907228012761,0.020546256785217,131.22020761141,0.039448845
0.21975588984671,0.020605320043844,130.84220724429,0.03955272
0.22043774535462,0.020664390702959,130.46620137602,0.039656605
0.22111785617578,0.020723468691374,130.09217390688,0.0397605
0.22179623175364,0.020782553938514,129.72010891275,0.039864405
0.22247288145143,0.020841646374408,129.34999064286,0.03996832
0.22314781455286,0.020900745929685,128.98180351747,0.040072245
0.22382104026292,0.020959852535568,128.61553212564,0.04017618
0.22449256770861,0.021018966123871,128.25116122306,0.040280125
0.22516240593964,0.021078086626988,127.88867572984,0.04038408
0.22583056392921,0.021137213977892,127.52806072837,0.040488045
0.22649705057474,0.021196348110128,127.16930146119,0.04059202
0.2271618746986,0.021255488957808,126.81238332891,0.040696005
0.22782504504882,0.021314636455604,126.45729188819,0.0408
0.22848657029982,0.021373790538743,126.10401284964,0.040904005
0.22914645905317,0.021432951143003,125.75253207583,0.04100802
0.22980471983826,0.021492118204708,125.40283557938,0.041112045
0.23046136111301,0.021551291660719,125.05490952094,0.04121608
0.23111639126462,0.021610471448431,124.70874020731,0.041320125
0.23176981861025,0.02166965750577,124.36431408949,0.04142418
0.23242165139771,0.021728849771183,124.02161776093,0.041528245
0.23307189780616,0.021788048183636,123.68063795554,0.04163232
0.23372056594682,0.021847252682608,123.34136154602,0.041736405
0.23436766386363,0.021906463208086,123.00377554195,0.0418405
0.23501319953392,0.021965679700559,122.66786708812,0.041944605
0.23565718086914,0.022024902101015,122.33362346272,0.04204872
0.23629961571545,0.022084130350933,122.0010320757,0.042152845
0.23694051185444,0.022143364392279,121.67008046701,0.04225698
0.23757987700377,0.022202604167505,121.34075630498,0.042361125
0.23821771881783,0.022261849619536,121.01304738466,0.04246528
0.23885404488836,0.022321100691774,120.68694162623,0.042569445
0.23948886274514,0.022380357328087,120.36242707334,0.04267362
0.24012217985657,0.022439619472806,120.03949189163,0.042777805
0.24075400363035,0.02249888707072,119.71812436711,0.042882
0.24138434141407,0.022558160067073,119.39831290466,0.042986205
0.24201320049585,0.022617438407558,119.08004602652,0.04309042
0.24264058810494,0.022676722038312,118.76331237082,0.043194645
0.24326651141232,0.022736010905912,118.4481006901,0.04329888
0.24389097753131,0.022795304957369,118.13439984987,0.043403125
0.2445139935182,0.022854604140127,117.8221988272,0.04350738
0.24513556637278,0.022913908402055,117.51148670931,0.043611645
0.24575570303896,0.022973217691444,117.2022526922,0.04371592
0.24637441040532,0.023032531957004,116.8944860793,0.043820205
0.24699169530574,0.023091851147857,116.58817628008,0.0439245
0.2476075645199,0.023151175213534,116.28331280878,0.044028805
0.24822202477386,0.023210504103972,115.97988528309,0.04413312
0.24883508274066,0.023269837769507,115.67788342287,0.044237445
0.24944674504081,0.023329176160873,115.37729704888,0.04434178
0.25005701824285,0.023388519229196,115.07811608152,0.044446125
0.25066590886392,0.02344786692599,114.78033053961,0.04455048
0.25127342337025,0.023507219203153,114.48393053921,0.044654845
0.2518795681777,0.023566576012964,114.18890629235,0.04475922
0.2524843496523,0.023625937308079,113.89524810596,0.044863605
0.25308777411073,0.023685303041526,113.60294638059,0.044968
0.25368984782087,0.023744673166701,113.31199160935,0.045072405
0.25429057700227,0.023804047637365,113.02237437675,0.04517682
0.25488996782666,0.023863426407642,112.73408535761,0.045281245000001
0.25548802641846,0.023922809432012,112.44711531591,0.04538568
0.25608475885524,0.023982196665308,112.16145510379,0.045490125
0.25668017116823,0.024041588062715,111.87709566041,0.04559458
0.25727426934275,0.024100983579764,111.59402801093,0.045699045
0.25786705931876,0.024160383172328,111.31224326551,0.04580352
0.25845854699125,0.02421978679662,111.03173261822,0.045908005
0.25904873821074,0.024279194409189,110.7524873461,0.0460125
0.25963763878371,0.024338605966917,110.47449880809,0.046117005
0.26022525447311,0.024398021427016,110.19775844415,0.04622152
0.26081159099873,0.024457440747021,109.92225777422,0.046326045
0.26139665403768,0.024516863884792,109.6479883973,0.04643058
0.26198044922482,0.024576290798507,109.37494199051,0.046535125
0.26256298215321,0.024635721446661,109.10311030815,0.04663968
0.26314425837449,0.02469515578806,108.83248518082,0.046744245
0.26372428339935,0.024754593781822,108.5630585145,0.04684882
0.26430306269791,0.024814035387369,108.29482228964,0.046953405000001
0.26488060170015,0.024873480564428,108.02776856037,0.047058
0.2654569057963,0.024932929273025,107.76188945353,0.047162605
0.26603198033727,0.024992381473485,107.49717716789,0.04726722
0.26660583063503,0.025051837126425,107.23362397332,0.047371845
0.26717846196298,0.025111296192756,106.97122220991,0.04747648
0.26774987955637,0.025170758633675,106.70996428721,0.047581125
0.26832008861269,0.025230224410666,106.44984268336,0.04768578
0.26888909429203,0.025289693485494,106.19084994441,0.047790445
0.26945690171743,0.025349165820205,105.9329786834,0.04789512
0.27002351597529,0.025408641377123,105.67622157969,0.047999805
0.27058894211575,0.025468120118845,105.42057137819,0.0481045
0.27115318515299,0.025527602008238,105.16602088856,0.048209205
0.27171625006563,0.025587087008441,104.91256298451,0.04831392
0.27227814179709,0.025646575082857,104.66019060304,0.048418645
0.27283886525591,0.025706066195154,104.4088967438,0.04852338
0.2733984253161,0.025765560309259,104.15867446827,0.048628125
0.27395682681752,0.025825057389359,103.90951689913,0.04873288
0.27451407456616,0.025884557399896,103.66141721956,0.048837645
0.27507017333451,0.025944060305567,103.41436867255,0.04894242
0.27562512786186,0.026003566071317,103.16836456023,0.049047205
0.27617894285469,0.026063074662342,102.92339824321,0.049152000000001
0.27673162298689,0.026122586044082,102.67946313992,0.049256805
0.27728317290016,0.026182100182222,102.436552726,0.04936162
0.2778335972043,0.026241617042688,102.19466053359,0.049466445000001
0.2783829004775,0.026301136591644,101.95378015078,0.04957128
0.27893108726668,0.026360658795491,101.71390522095,0.049676125
0.27947816208777,0.026420183620865,101.47502944216,0.04978098
0.280024129426,0.026479711034633,101.23714656658,0.049885845
0.28056899373623,0.026539241003892,101.00025039983,0.04999072
0.28111275944321,0.026598773495967,100.76433480047,0.050095605
0.2816554309419,0.026658308478409,100.52939367937,0.0502005
0.28219701259771,0.02671784591899,100.29542099916,0.050305405
0.28273750874683,0.026777385785706,100.06241077365,0.05041032
0.2832769236965,0.026836928046769,99.830357067285,0.050515245
0.28381526172523,0.026896472670611,99.599253994609,0.05062018
0.28435252708316,0.026956019625877,99.369095719693,0.050725125000001
0.28488872399228,0.027015568881425,99.139876455621,0.050830080000001
0.28542385664667,0.027075120406325,98.911590463962,0.050935045000001
0.28595792921282,0.027134674169854,98.68423205424,0.05104002
0.28649094582988,0.027194230141497,98.45779558343,0.051145005
0.28702291060986,0.027253788290944,98.23227545544,0.05125
0.28755382763797,0.027313348588089,98.00766612062,0.051355005
0.28808370097279,0.027372911003024,97.783962075264,0.05146002
0.28861253464656,0.027432475506044,97.561157861121,0.051565045
0.28914033266545,0.02749204206764,97.339248064912,0.05167008
0.28966709900975,0.027551610658498,97.118227317857,0.051775125
0.29019283763411,0.027611181249497,96.898090295221,0.05188018
0.29071755246784,0.027670753811712,96.67883171581,0.051985245
0.29124124741507,0.027730328316403,96.460446341564,0.05209032
0.29176392635503,0.027789904735022,96.242928977068,0.052195405
0.29228559314226,0.027849483039207,96.026274469124,0.0523005
0.29280625160682,0.027909063200781,95.810477706305,0.052405605
0.29332590555456,0.027968645191751,95.595533618519,0.05251072
0.2938445587673,0.028028228984303,95.381437176592,0.052615845
0.29436221500305,0.028087814550807,95.168183391829,0.052720980000001
0.29487887799625,0.028147401863808,94.955767315608,0.052826125000001
0.29539455145795,0.028206990896031,94.744184038959,0.052931280000001
0.29590923907607,0.028266581620374,94.53342869216,0.053036445000001
0.29642294451555,0.02832617400991,94.323496444334,0.053141620000001
0.29693567141861,0.028385768037882,94.114382503051,0.053246805000001
0.29744742340491,0.028445363677706,93.90608211394,0.053352
0.29795820407178,0.028504960902967,93.698590560289,0.053457205
0.29846801699439,0.028564559687415,93.491903162674,0.05356242
0.298976865726,0.028624160004969,93.286015278584,0.053667645
0.29948475379809,0.028683761829712,93.080922302035,0.05377288
0.2999916847206,0.028743365135887,92.876619663201,0.053878125
0.30049766198209,0.028802969897904,92.673102828072,0.05398338
0.30100268904997,0.02886257609033,92.470367298059,0.054088645
0.30150676937062,0.02892218368789,92.268408609679,0.05419392
0.30200990636962,0.02898179266547,92.067222334164,0.054299205
0.30251210345196,0.029041402998109,91.866804077145,0.0544045
0.30301336400213,0.029101014661002,91.667149478294,0.054509805000001
0.30351369138439,0.029160627629497,91.46825421099,0.054615120000001
0.30401308894289,0.029220241879096,91.270113981984,0.054720445000001
0.30451156000187,0.029279857385449,91.072724531065,0.054825780000001
0.3050091078658,0.029339474124357,90.876081630753,0.054931125000001
0.30550573581961,0.029399092071769,90.680181085946,0.055036480000001
0.30600144712879,0.029458711203781,90.485018733625,0.055141845
0.3064962450396,0.029518331496634,90.290590442533,0.055247220000001
0.30699013277922,0.029577952926715,90.096892112854,0.055352605
0.30748311355592,0.029637575470554,89.903919675936,0.055458000000001
0.3079751905592,0.02969719910482,89.711669093947,0.055563405
0.30846636695998,0.029756823806326,89.520136359608,0.055668820000001
0.30895664591073,0.029816449552025,89.329317495876,0.055774245
0.30944603054565,0.029876076319006,89.13920855567,0.05587968
0.30993452398081,0.029935704084496,88.949805621563,0.055985125
0.31042212931428,0.02999533282586,88.761104805506,0.05609058
0.31090884962634,0.030054962520595,88.573102248552,0.056196045
0.31139468797957,0.030114593146334,88.385794120564,0.05630152
0.31187964741903,0.030174224680843,88.199176619946,0.056407005
0.31236373097238,0.030233857102018,88.013245973371,0.056512500000001
0.31284694165008,0.030293490387886,87.827998435507,0.056618005000001
0.31332928244544,0.030353124516605,87.643430288757,0.056723520000001
0.31381075633485,0.03041275946646,87.459537842998,0.056829045000001
0.31429136627789,0.030472395215862,87.276317435297,0.056934580000001
0.31477111521742,0.030532031743352,87.093765429702,0.057040125000001
0.31525000607981,0.030591669027594,86.911878216931,0.057145680000001
0.31572804177499,0.030651307047375,86.730652214173,0.057251245000001
0.31620522519662,0.030710945781609,86.550083864795,0.057356820000001
0.31668155922225,0.030770585209328,86.370169638128,0.057462405000001
0.31715704671337,0.030830225309689,86.190906029214,0.057568
0.31763169051564,0.030889866061966,86.012289558566,0.057673605
0.31810549345894,0.030949507445556,85.834316771927,0.05777922
0.31857845835753,0.03100914943997,85.656984240046,0.057884845
0.31905058801018,0.03106879202484,85.480288558435,0.05799048
0.31952188520026,0.031128435179914,85.304226347143,0.058096125
0.31999235269593,0.031188078885053,85.128794250541,0.05820178
0.32046199325019,0.031247723120235,84.953988937084,0.058307445000001
0.32093080960102,0.031307367865551,84.779807099092,0.058413120000001
0.32139880447153,0.031367013101206,84.606245452537,0.058518805000001
0.32186598057006,0.031426658807515,84.433300736826,0.058624500000001
0.32233234059027,0.031486304964905,84.260969714574,0.058730205000001
0.32279788721131,0.031545951553913,84.089249171419,0.058835920000001
0.32326262309786,0.031605598555185,83.918135915786,0.058941645000001
0.32372655090033,0.031665245949477,83.747626778691,0.059047380000001
0.3241896732549,0.031724893717651,83.577718613542,0.059153125000001
0.32465199278366,0.031784541840676,83.408408295927,0.059258880000001
0.32511351209474,0.031844190299627,83.239692723417,0.059364645000001
0.32557423378237,0.031903839075686,83.071568815375,0.059470420000001
0.32603416042702,0.031963488150136,82.904033512751,0.059576205
0.32649329459551,0.032023137504365,82.737083777893,0.059682000000001
0.3269516388411,0.032082787119866,82.570716594355,0.059787805
0.3274091957036,0.03214243697823,82.404928966708,0.059893620000001
0.32786596770947,0.032202087061151,82.239717920348,0.059999445000001
0.32832195737191,0.032261737350425,82.075080501325,0.060105280000001
0.32877716719101,0.032321387827945,81.91101377614,0.060211125000001
0.32923159965379,0.032381038475704,81.747514831584,0.060316980000001
0.32968525723432,0.032440689275793,81.584580774538,0.060422845000001
0.33013814239385,0.032500340210401,81.422208731817,0.060528720000001
0.33059025758085,0.032559991261812,81.260395849978,0.060634605000001
0.33104160523115,0.032619642412407,81.099139295157,0.060740500000001
0.33149218776801,0.032679293644664,80.938436252887,0.060846405000001
0.33194200760225,0.032738944941152,80.778283927943,0.060952320000001
0.33239106713228,0.032798596284536,80.618679544166,0.061058245000001
0.33283936874426,0.032858247657573,80.459620344283,0.061164180000001
0.33328691481216,0.032917899043114,80.301103589776,0.061270125000001
0.33373370769783,0.032977550424099,80.143126560688,0.061376080000001
0.33417974975113,0.033037201783563,79.985686555474,0.061482045000001
0.33462504330999,0.033096853104627,79.828780890846,0.061588020000001
0.33506959070053,0.033156504370505,79.672406901613,0.061694005000001
0.33551339423709,0.033216155564498,79.516561940519,0.061800000000001
0.33595645622239,0.033275806669996,79.361243378095,0.061906005000001
0.33639877894754,0.033335457670478,79.206448602512,0.06201202
0.33684036469219,0.033395108549509,79.052175019409,0.062118045000001
0.33728121572457,0.033454759290739,78.898420051771,0.062224080000001
0.33772133430159,0.033514409877906,78.745181139762,0.062330125000001
0.33816072266893,0.033574060294833,78.592455740587,0.062436180000001
0.3385993830611,0.033633710525427,78.440241328345,0.062542245000001
0.33903731770153,0.03369336055368,78.288535393886,0.062648320000001
0.33947452880267,0.033753010363664,78.137335444671,0.062754405000001
0.33991101856601,0.033812659939539,77.986639004628,0.062860500000001
0.34034678918225,0.033872309265543,77.836443614016,0.062966605000001
0.34078184283129,0.033931958325998,77.686746829287,0.063072720000001
0.34121618168236,0.033991607105306,77.53754622295,0.063178845000001
0.34164980789407,0.03405125558795,77.388839383439,0.063284980000001
0.3420827236145,0.034110903758491,77.240623914977,0.063391125000001
0.34251493098127,0.034170551601573,77.092897437441,0.063497280000001
0.34294643212161,0.034230199101916,76.945657586236,0.063603445000001
0.34337722915242,0.034289846244318,76.798902012173,0.063709620000001
0.3438073241804,0.034349493013656,76.652628381323,0.063815805
0.34423671930205,0.034409139394884,76.506834374906,0.063922000000001
0.34466541660376,0.034468785373032,76.361517689164,0.064028205000001
0.34509341816193,0.034528430933207,76.216676035223,0.064134420000001
0.34552072604297,0.03458807606059,76.072307138994,0.064240645000001
0.34594734230341,0.034647720740438,75.928408741032,0.064346880000001
0.34637326898998,0.034707364958082,75.78497859642,0.064453125000001
0.34679850813962,0.034767008698928,75.642014474661,0.064559380000001
0.34722306177962,0.034826651948454,75.499514159543,0.064665645000001
0.34764693192763,0.034886294692212,75.357475449036,0.064771920000001
0.34807012059177,0.034945936915827,75.215896155168,0.064878205000001
0.34849262977064,0.035005578604993,75.074774103917,0.064984500000001
0.34891446145346,0.03506521974548,74.934107135094,0.065090805000001
0.34933561762005,0.035124860323124,74.793893102231,0.065197120000001
0.34975610024098,0.035184500323836,74.654129872475,0.065303445000001
0.35017591127755,0.035244139733594,74.514815326471,0.065409780000001
0.35059505268192,0.035303778538447,74.375947358253,0.065516125000001
0.35101352639713,0.035363416724513,74.237523875146,0.065622480000001
0.35143133435718,0.035423054277977,74.099542797651,0.065728845000001
0.35184847848709,0.035482691185095,73.962002059338,0.065835220000001
0.35226496070295,0.035542327432188,73.824899606749,0.065941605000001
0.352680782912,0.035601963005645,73.688233399291,0.066048000000001
0.35309594701266,0.035661597891922,73.552001409129,0.066154405000001
0.35351045489461,0.035721232077543,73.416201621091,0.066260820000001
0.35392430843886,0.035780865549095,73.280832032564,0.066367245000001
0.35433750951777,0.035840498293232,73.145890653396,0.066473680000001
0.35475005999513,0.035900130296673,73.011375505798,0.066580125000001
0.35516196172622,0.035959761546202,72.877284624237,0.066686580000001
0.35557321655788,0.036019392028665,72.743616055361,0.066793045000001
0.35598382632851,0.036079021730975,72.610367857878,0.066899520000001
0.35639379286819,0.036138650640106,72.477538102477,0.067006005000001
0.3568031179987,0.036198278743095,72.345124871732,0.067112500000001
0.35721180353358,0.036257906027043,72.213126260005,0.067219005000001
0.35761984958871,0.036317532491737,72.081540938365,0.067325520000001
0.35802725970181,0.036377158111394,71.950366440687,0.067432045000001
0.35843403566063,0.036436782873309,71.819600896709,0.067538580000001
0.35884017924489,0.036496406764838,71.689242447583,0.067645125000001
0.35924569222642,0.036556029773398,71.559289245781,0.067751680000001
0.35965057636914,0.036615651886466,71.429739455008,0.067858245000001
0.36005483342914,0.036675273091577,71.30059125012,0.067964820000001
0.36045846515471,0.036734893376327,71.171842817035,0.068071405000001
0.36086147328643,0.036794512728368,71.043492352644,0.068178000000001
0.36126385955717,0.036854131135414,70.915538064739,0.068284605000001
0.36166562569216,0.036913748585233,70.787978171917,0.068391220000001
0.36206677340906,0.036973365065655,70.660810903503,0.068497845
0.36246730441796,0.037032980564562,70.53403449947,0.068604480000001
0.36286722042147,0.037092595069898,70.407647210351,0.068711125
0.36326652311474,0.03715220856966,70.281647297165,0.06881778
0.36366521418553,0.037211821051903,70.15603303134,0.068924445000001
0.36406329531423,0.037271432504737,70.030802694624,0.06903112
0.36446076817392,0.037331042916329,69.905954579015,0.069137805
0.36485763443043,0.037390652274898,69.781486986682,0.0692445
0.36525389574235,0.03745026056872,69.657398229888,0.069351205
0.3656495537611,0.037509867786126,69.533686630909,0.06945792
0.36604461013097,0.0375694739155,69.410350521971,0.069564645
0.36643906648887,0.037629078945282,69.287388245255,0.06967138
0.36683292446526,0.037688682863962,69.164798152548,0.069778125
0.3672261856833,0.037748285660084,69.042578605454,0.069884880000001
0.36761885175918,0.037807887322245,68.920727975228,0.069991645
0.36801092430218,0.037867487839096,68.799244642695,0.070098420000001
0.36840240491472,0.037927087199338,68.678126998189,0.070205205
0.36879329519237,0.037986685391726,68.557373441482,0.070312
0.36918359672392,0.038046282405065,68.436982381697,0.070418805000001
0.36957331109141,0.038105878228212,68.316952237267,0.070525620000001
0.36996243987017,0.038165472850073,68.197281435843,0.070632445000001
0.37035098462888,0.038225066259609,68.077968414235,0.070739280000001
0.37073894692956,0.038284658445827,67.959011618344,0.070846125
0.37112632832768,0.038344249397785,67.840409503095,0.07095298
0.37151313037213,0.038403839104592,67.72216053237,0.071059845000001
0.37189935460532,0.038463427555405,67.604263178942,0.07116672
0.37228500256317,0.038523014739431,67.48671592441,0.071273605
0.37267007577518,0.038582600645925,67.369517259139,0.0713805
0.37305457576447,0.038642185264192,67.252665682187,0.071487405
0.37343850404778,0.038701768583584,67.136159701246,0.07159432
0.37382186213555,0.0387613505935,67.019997832587,0.071701245
0.37420465153195,0.038820931283388,66.904178600979,0.07180818
0.37458687373489,0.038880510642745,66.788700539652,0.071915125
0.37496853023609,0.038940088661111,66.67356219021,0.07202208
0.3753496225211,0.038999665328076,66.558762102592,0.072129045
0.37573015206934,0.039059240633275,66.444298834993,0.07223602
0.37611012035413,0.039118814566391,66.330170953829,0.072343005
0.37648952884274,0.039178387117152,66.216377033649,0.07245
0.3768683789964,0.03923795827533,66.102915657096,0.072557005
0.37724667227037,0.039297528030744,65.989785414841,0.07266402
0.37762441011395,0.03935709637326,65.876984905534,0.072771045
0.37800159397052,0.039416663292785,65.764512735734,0.07287808
0.37837822527758,0.039476228779275,65.652367519864,0.072985125
0.37875430546678,0.039535792822726,65.540547880149,0.07309218
0.37912983596394,0.039595355413182,65.429052446558,0.073199245
0.37950481818913,0.039654916540728,65.317879856761,0.07330632
0.37987925355664,0.039714476195494,65.207028756053,0.073413405
0.38025314347505,0.039774034367654,65.096497797328,0.0735205
0.38062648934728,0.039833591047424,64.986285640998,0.073627605
0.38099929257058,0.039893146225063,64.87639095496,0.07373472
0.38137155453658,0.039952699890873,64.766812414532,0.073841845
0.38174327663133,0.040012252035199,64.657548702405,0.07394898
0.38211446023534,0.040071802648426,64.548598508586,0.074056125
0.38248510672358,0.040131351720983,64.439960530356,0.07416328
0.38285521746554,0.04019089924334,64.331633472211,0.074270445
0.38322479382525,0.040250445206008,64.223616045819,0.07437762
0.38359383716129,0.040309989599541,64.115906969957,0.074484805
0.38396234882689,0.040369532414531,64.008504970473,0.074592
0.38433033016988,0.040429073641614,63.901408780235,0.074699205
0.38469778253276,0.040488613271463,63.79461713908,0.07480642
0.38506470725271,0.040548151294795,63.688128793765,0.074913645
0.38543110566167,0.040607687702363,63.58194249792,0.07502088
0.3857969790863,0.040667222484964,63.476057011999,0.075128125
0.38616232884805,0.040726755633432,63.370471103235,0.07523538
0.3865271562632,0.04078628713864,63.265183545594,0.075342645
0.38689146264286,0.040845816991503,63.160193119723,0.07544992
0.38725524929299,0.040905345182971,63.055498612914,0.075557205
0.38761851751448,0.040964871704036,62.951098819045,0.0756645
0.38798126860312,0.041024396545727,62.846992538547,0.075771805
0.38834350384968,0.041083919699113,62.743178578352,0.07587912
0.3887052245399,0.041143441155297,62.639655751849,0.075986445
0.38906643195453,0.041202960905425,62.536422878846,0.07609378
0.38942712736936,0.041262478940676,62.433478785518,0.076201125
0.38978731205524,0.041321995252271,62.330822304367,0.07630848
0.39014698727812,0.041381509831465,62.228452274178,0.076415845
0.39050615429908,0.04144102266955,62.126367539983,0.07652322
0.39086481437431,0.041500533757857,62.024566953008,0.076630605
0.39122296875521,0.041560043087753,61.923049370636,0.076738
0.39158061868837,0.041619550650639,61.821813656369,0.076845405
0.3919377654156,0.041679056437955,61.720858679779,0.07695282
0.39229441017396,0.041738560441177,61.620183316475,0.077060245
0.39265055419578,0.041798062651816,61.519786448055,0.07716768
0.39300619870873,0.041857563061417,61.419666962071,0.077275125
0.39336134493575,0.041917061661564,61.319823751989,0.07738258
0.39371599409519,0.041976558443873,61.220255717142,0.077490045
0.39407014740075,0.042036053399998,61.120961762703,0.07759752
0.39442380606153,0.042095546521625,61.021940799634,0.077705005
0.39477697128207,0.042155037800477,60.923191744657,0.0778125
0.39512964426236,0.04221452722831,60.824713520206,0.077920005
0.39548182619786,0.042274014796915,60.726505054397,0.07802752
0.39583351827954,0.042333500498117,60.628565280991,0.078135045
0.3961847216939,0.042392984323776,60.530893139344,0.07824258
0.39653543762298,0.042452466265784,60.433487574389,0.078350125
0.3968856672444,0.042511946316068,60.33634753658,0.07845768
0.39723541173136,0.042571424466586,60.239471981871,0.078565245
0.3975846722527,0.042630900709334,60.142859871667,0.07867282
0.39793344997289,0.042690375036336,60.046510172802,0.078780405
0.39828174605207,0.042749847439652,59.950421857488,0.078888
0.39862956164609,0.042809317911373,59.854593903291,0.078995605
0.39897689790647,0.042868786443625,59.75902529309,0.07910322
0.3993237559805,0.042928253028562,59.663715015045,0.079210845
0.39967013701121,0.042987717658376,59.568662062564,0.07931848
0.4000160421374,0.043047180325285,59.473865434262,0.079426125
0.40036147249371,0.043106641021544,59.379324133934,0.07953378
0.40070642921056,0.043166099739436,59.285037170517,0.079641445
0.40105091341423,0.043225556471279,59.191003558059,0.07974912
0.40139492622688,0.043285011209418,59.097222315686,0.079856805
0.40173846876653,0.043344463946233,59.003692467567,0.0799645
0.40208154214714,0.043403914674134,58.910413042878,0.080072205
0.40242414747858,0.043463363385561,58.817383075782,0.08017992
0.40276628586668,0.043522810072985,58.724601605381,0.080287645
0.40310795841324,0.043582254728909,58.632067675696,0.08039538
0.40344916621606,0.043641697345864,58.53978033563,0.080503125
0.40378991036893,0.043701137916413,58.447738638937,0.08061088
0.40413019196171,0.043760576433149,58.355941644193,0.080718645
0.40447001208029,0.043820012888694,58.264388414763,0.08082642
0.40480937180664,0.0438794472757,58.173078018769,0.080934205
0.40514827221884,0.043938879586851,58.082009529061,0.081042
0.40548671439105,0.043998309814856,57.991182023193,0.081149805
0.40582469939361,0.044057737952457,57.900594583378,0.08125762
0.40616222829297,0.044117163992424,57.810246296473,0.081365445
0.4064993021518,0.044176587927555,57.720136253947,0.08147328
0.40683592202892,0.04423600975068,57.630263551839,0.081581125
0.40717208897938,0.044295429454653,57.540627290749,0.08168898
0.40750780405448,0.044354847032362,57.451226575789,0.081796845
0.40784306830175,0.044414262476718,57.362060516573,0.08190472
0.40817788276498,0.044473675780665,57.273128227172,0.082012605
0.40851224848429,0.044533086937173,57.184428826098,0.0821205
0.40884616649605,0.044592495939239,57.095961436269,0.082228405
0.40917963783301,0.04465190277989,57.007725184987,0.08233632
0.40951266352424,0.044711307452179,56.919719203905,0.082444245
0.40984524459515,0.044770709949189,56.831942628999,0.08255218
0.41017738206758,0.044830110264027,56.744394600549,0.082660125
0.41050907695973,0.044889508389831,56.657074263104,0.08276808
0.41084033028623,0.044948904319762,56.569980765458,0.082876045
0.41117114305815,0.045008298047013,56.483113260624,0.08298402
0.411501516283,0.0450676895648,56.396470905806,0.083092005
0.41183145096477,0.045127078866368,56.310052862376,0.0832
0.41216094810392,0.045186465944987,56.223858295846,0.083308005
0.41249000869744,0.045245850793954,56.137886375844,0.08341602
0.41281863373883,0.045305233406594,56.052136276083,0.083524045
0.41314682421812,0.045364613776256,55.966607174339,0.08363208
0.41347458112191,0.045423991896316,55.881298252432,0.083740125
0.41380190543336,0.045483367760178,55.796208696194,0.08384818
0.41412879813223,0.045542741361267,55.711337695441,0.083956245
0.41445526019489,0.045602112693039,55.626684443958,0.08406432
0.41478129259431,0.045661481748973,55.542248139471,0.084172405
0.41510689630013,0.045720848522573,55.458027983614,0.0842805
0.41543207227862,0.045780213007371,55.374023181922,0.084388605
0.41575682149274,0.04583957519692,55.290232943792,0.08449672
0.41608114490212,0.045898935084803,55.206656482463,0.084604845
0.41640504346311,0.045958292664624,55.123293015001,0.08471298
0.41672851812878,0.046017647930014,55.040141762267,0.084821125
0.41705156984892,0.046077000874628,54.957201948891,0.08492928
0.4173741995701,0.046136351492147,54.87447280326,0.085037445
0.41769640823562,0.046195699776274,54.791953557488,0.08514562
0.41801819678559,0.046255045720739,54.709643447393,0.085253805
0.41833956615691,0.046314389319295,54.627541712475,0.085362
0.4186605172833,0.046373730565719,54.545647595899,0.085470205
0.4189810510953,0.046433069453812,54.463960344462,0.08557842
0.4193011685203,0.0464924059774,54.382479208588,0.085686645
0.41962087048254,0.046551740130331,54.301203442286,0.08579488
0.41994015790315,0.04661107190648,54.220132303141,0.085903124999999
0.42025903170013,0.046670401299741,54.139265052293,0.086011379999999
0.4205774927884,0.046729728304035,54.058600954407,0.086119644999999
0.42089554207979,0.046789052913305,53.978139277661,0.086227919999999
0.42121318048307,0.046848375121519,53.897879293718,0.086336204999999
0.42153040890395,0.046907694922664,53.81782027771,0.086444499999999
0.42184722824511,0.046967012310755,53.737961508218,0.086552804999999
0.4221636394062,0.047026327279827,53.658302267242,0.086661119999999
0.42247964328385,0.047085639823939,53.578841840195,0.086769444999999
0.42279524077172,0.047144949937171,53.499579515868,0.086877779999999
0.42311043276047,0.047204257613627,53.420514586422,0.086986124999999
0.4234252201378,0.047263562847435,53.341646347362,0.087094479999999
0.42373960378845,0.047322865632742,53.262974097516,0.087202844999999
0.42405358459424,0.04738216596372,53.184497139019,0.087311219999999
0.42436716343403,0.047441463834561,53.106214777292,0.087419604999999
0.4246803411838,0.047500759239482,53.02812632102,0.087527999999999
0.42499311871662,0.047560052172719,52.95023108214,0.087636404999999
0.42530549690267,0.047619342628532,52.872528375809,0.087744819999999
0.42561747660925,0.047678630601201,52.795017520402,0.087853244999999
0.42592905870084,0.04773791608503,52.717697837476,0.087961679999999
0.42624024403902,0.047797199074342,52.640568651768,0.088070124999999
0.42655103348259,0.047856479563483,52.563629291156,0.08817858
0.42686142788749,0.04791575754682,52.486879086665,0.088287044999999
0.42717142810688,0.047975033018741,52.410317372425,0.088395519999999
0.42748103499111,0.048034305973656,52.33394348567,0.088504004999999
0.42779024938776,0.048093576405996,52.257756766709,0.088612499999999
0.42809907214165,0.048152844310212,52.181756558918,0.088721004999999
0.42840750409482,0.048212109680777,52.105942208714,0.088829519999999
0.4287155460866,0.048271372512183,52.030313065539,0.088938044999999
0.42902319895355,0.048330632798945,51.954868481843,0.089046579999999
0.42933046352955,0.048389890535597,51.879607813069,0.089155124999999
0.42963734064577,0.048449145716695,51.804530417632,0.089263679999999
0.42994383113065,0.048508398336813,51.729635656905,0.089372244999999
0.43024993581,0.048567648390548,51.6549228952,0.089480819999999
0.43055565550694,0.048626895872515,51.580391499749,0.089589404999999
0.43086099104192,0.048686140777352,51.506040840691,0.089697999999999
0.43116594323277,0.048745383099713,51.431870291057,0.089806604999999
0.43147051289466,0.048804622834275,51.357879226742,0.089915219999999
0.43177470084017,0.048863859975735,51.284067026507,0.090023844999999
0.43207850787926,0.048923094518807,51.210433071942,0.090132479999999
0.43238193481928,0.048982326458228,51.136976747468,0.090241124999999
0.43268498246501,0.049041555788752,51.063697440307,0.090349779999999
0.43298765161866,0.049100782505155,50.990594540472,0.090458444999999
0.43328994307985,0.049160006602229,50.917667440757,0.090567119999999
0.43359185764568,0.049219228074788,50.844915536711,0.090675804999999
0.43389339611071,0.049278446917666,50.772338226622,0.090784499999999
0.43419455926694,0.049337663125713,50.699934911511,0.090893204999999
0.43449534790389,0.049396876693801,50.62770499511,0.091001919999999
0.43479576280855,0.049456087616819,50.555647883847,0.091110644999999
0.43509580476543,0.049515295889677,50.483762986831,0.091219379999999
0.43539547455655,0.0495745015073,50.412049715836,0.091328124999999
0.43569477296146,0.049633704464637,50.340507485293,0.091436879999999
0.43599370075725,0.049692904756651,50.269135712261,0.091545644999999
0.43629225871855,0.049752102378326,50.197933816423,0.091654419999999
0.43659044761756,0.049811297324665,50.126901220074,0.091763204999999
0.43688826822405,0.049870489590687,50.056037348094,0.091871999999999
0.43718572130536,0.049929679171431,49.985341627941,0.091980804999999
0.43748280762645,0.049988866061954,49.914813489638,0.092089619999999
0.43777952794985,0.050048050257332,49.844452365756,0.092198444999999
0.43807588303573,0.050107231752657,49.774257691399,0.092307279999999
0.43837187364185,0.050166410543041,49.704228904192,0.092416124999999
0.43866750052365,0.050225586623613,49.634365444263,0.092524979999999
0.43896276443418,0.050284759989519,49.564666754236,0.092633844999999
0.43925766612415,0.050343930635925,49.495132279209,0.092742719999999
0.43955220634195,0.050403098558013,49.425761466748,0.092851604999999
0.43984638583362,0.050462263750983,49.356553766864,0.092960499999999
0.44014020534292,0.050521426210052,49.287508632009,0.093069404999999
0.44043366561126,0.050580585930456,49.21862551706,0.093178319999999
0.4407267673778,0.050639742907446,49.149903879296,0.093287244999999
0.44101951137939,0.050698897136294,49.081343178401,0.093396179999999
0.4413118983506,0.050758048612285,49.012942876435,0.093505124999999
0.44160392902375,0.050817197330724,48.944702437834,0.093614079999999
0.4418956041289,0.050876343286932,48.876621329388,0.093723044999999
0.44218692439386,0.050935486476247,48.808699020229,0.093832019999999
0.44247789054421,0.050994626894025,48.740934981825,0.093941004999999
0.44276850330329,0.051053764535637,48.673328687956,0.094049999999999
0.44305876339225,0.051112899396472,48.605879614714,0.094159004999999
0.44334867152999,0.051172031471936,48.538587240477,0.094268019999999
0.44363822843326,0.051231160757451,48.47145104591,0.094377044999999
0.44392743481658,0.051290287248455,48.404470513941,0.094486079999999
0.44421629139231,0.051349410940405,48.337645129753,0.094595124999999
0.44450479887064,0.051408531828771,48.270974380778,0.094704179999999
0.4447929579596,0.051467649909042,48.20445775667,0.094813244999999
0.44508076936505,0.051526765176722,48.138094749308,0.094922319999999
0.44536823379073,0.051585877627331,48.071884852776,0.095031404999999
0.44565535193824,0.051644987256407,48.005827563352,0.095140499999999
0.44594212450705,0.051704094059502,47.939922379496,0.095249604999999
0.4462285521945,0.051763198032185,47.87416880184,0.095358719999999
0.44651463569586,0.051822299170041,47.808566333175,0.095467844999999
0.44680037570427,0.05188139746867,47.743114478437,0.095576979999999
0.4470857729108,0.05194049292369,47.677812744702,0.095686124999999
0.44737082800442,0.051999585530732,47.612660641165,0.095795279999999
0.44765554167205,0.052058675285444,47.54765767914,0.095904444999999
0.44793991459852,0.052117762183489,47.482803372034,0.096013619999999
0.44822394746663,0.052176846220548,47.418097235352,0.096122804999999
0.44850764095713,0.052235927392313,47.353538786673,0.096231999999999
0.44879099574872,0.052295005694497,47.289127545645,0.096341204999999
0.44907401251808,0.052354081122823,47.224863033973,0.096450419999999
0.44935669193987,0.052413153673032,47.160744775409,0.096559644999999
0.44963903468673,0.052472223340881,47.096772295735,0.096668879999999
0.44992104142931,0.05253129012214,47.032945122759,0.096778124999999
0.45020271283626,0.052590354012596,46.969262786304,0.096887379999999
0.45048404957422,0.052649415008049,46.905724818192,0.096996644999999
0.45076505230788,0.052708473104317,46.842330752238,0.097105919999999
0.45104572169995,0.052767528297229,46.779080124238,0.097215204999999
0.45132605841118,0.052826580582633,46.715972471956,0.097324499999999
0.45160606310036,0.052885629956388,46.65300733512,0.097433804999999
0.45188573642432,0.05294467641437,46.590184255404,0.097543119999999
0.45216507903799,0.053003719952469,46.527502776422,0.097652444999999
0.45244409159432,0.05306276056659,46.464962443717,0.097761779999999
0.45272277474437,0.053121798252652,46.402562804753,0.097871124999999
0.45300112913729,0.05318083300659,46.340303408898,0.097980479999999
0.4532791554203,0.05323986482435,46.278183807421,0.098089844999999
0.45355685423872,0.053298893701897,46.216203553479,0.098199219999999
0.453834226236,0.053357919635206,46.154362202111,0.098308604999999
0.45411127205369,0.053416942620268,46.092659310217,0.098417999999999
0.45438799233147,0.05347596265309,46.031094436561,0.098527404999999
0.45466438770715,0.05353497972969,45.969667141757,0.098636819999999
0.45494045881668,0.053593993846103,45.908376988256,0.098746244999999
0.45521620629415,0.053653004998374,45.84722354034,0.098855679999999
0.4554916307718,0.053712013182567,45.786206364107,0.098965124999999
0.45576673288005,0.053771018394757,45.725325027475,0.099074579999999
0.45604151324748,0.053830020631032,45.664579100151,0.099184044999999
0.45631597250084,0.053889019887496,45.603968153647,0.099293519999999
0.45659011126506,0.053948016160266,45.543491761245,0.099403004999999
0.45686393016327,0.054007009445472,45.483149498008,0.099512499999999
0.45713742981681,0.054065999739258,45.422940940762,0.099622004999999
0.45741061084519,0.054124987037782,45.362865668086,0.099731519999999
0.45768347386617,0.054183971337215,45.302923260305,0.099841044999999
0.45795601949571,0.054242952633742,45.243113299482,0.099950579999999
0.45822824834799,0.05430193092356,45.183435369407,0.100060125
0.45850016103544,0.054360906202882,45.123889055588,0.10016968
0.45877175816872,0.054419878467932,45.064473945244,0.100279245
0.45904304035674,0.054478847714947,45.005189627297,0.10038882
0.45931400820667,0.05453781394018,44.946035692355,0.100498405
0.45958466232394,0.054596777139893,44.887011732718,0.100608
0.45985500331224,0.054655737310366,44.828117342354,0.100717605
0.46012503177354,0.054714694447887,44.769352116902,0.10082722
0.4603947483081,0.054773648548761,44.710715653657,0.100936845
0.46066415351445,0.054832599609303,44.652207551562,0.10104648
0.46093324798944,0.054891547625844,44.593827411203,0.101156125
0.4612020323282,0.054950492594725,44.535574834797,0.10126578
0.46147050712418,0.0550094345123,44.477449426189,0.101375445
0.46173867296916,0.055068373374938,44.419450790833,0.10148512
0.4620065304532,0.055127309179019,44.361578535795,0.101594805
0.46227408016474,0.055186241920935,44.303832269743,0.1017045
0.46254132269052,0.055245171597091,44.246211602931,0.101814205
0.46280825861562,0.055304098203907,44.188716147199,0.10192392
0.46307488852351,0.055363021737812,44.131345515961,0.102033645
0.46334121299596,0.055421942195249,44.0740993242,0.10214338
0.46360723261314,0.055480859572673,44.016977188458,0.102253125
0.46387294795357,0.055539773866552,43.959978726825,0.10236288
0.46413835959415,0.055598685073366,43.90310355894,0.102472645
0.46440346811016,0.055657593189607,43.846351305974,0.10258242
0.46466827407527,0.055716498211778,43.789721590626,0.102692205
0.46493277806152,0.055775400136398,43.733214037118,0.102802
0.46519698063939,0.055834298959993,43.676828271182,0.102911805
0.46546088237772,0.055893194679105,43.620563920056,0.10302162
0.4657244838438,0.055952087290285,43.564420612476,0.103131445
0.46598778560331,0.0560109767901,43.508397978667,0.10324128
0.46625078822038,0.056069863175124,43.452495650338,0.103351125
0.46651349225753,0.056128746441947,43.396713260671,0.10346098
0.46677589827576,0.056187626587168,43.341050444319,0.103570845
0.46703800683447,0.056246503607398,43.28550683739,0.10368072
0.46729981849155,0.056305377499263,43.230082077451,0.103790605
0.46756133380332,0.056364248259396,43.174775803513,0.1039005
0.46782255332455,0.056423115884445,43.119587656021,0.104010405
0.46808347760849,0.056481980371068,43.06451727686,0.10412032
0.46834410720686,0.056540841715936,43.009564309331,0.104230245
0.46860444266985,0.056599699915728,42.954728398159,0.10434018
0.46886448454615,0.05665855496714,42.900009189475,0.104450125
0.46912423338291,0.056717406866874,42.845406330815,0.10456008
0.46938368972581,0.056776255611647,42.790919471111,0.104670045
0.46964285411899,0.056835101198185,42.736548260683,0.10478002
0.46990172710513,0.056893943623227,42.682292351237,0.104890005
0.4701603092254,0.056952782883522,42.628151395853,0.105
