d,ep,stress_yy,total_strain_yy
0,0,0,0
0,0,6.8797190688834,0.00010000499999996
0,0,13.758876406685,0.00020001999999997
0,0,20.637472210044,0.00030004499999992
0,0,27.515506675558,0.00040007999999991
0,0,34.392979999647,0.00050012499999996
0,0,41.269892378663,0.00060017999999995
0,0,48.146244008907,0.00070024499999988
0,0,55.022035086568,0.00080031999999997
0,0,61.897265807699,0.00090040499999988
0,0,68.771936368286,0.0010004999999998
0,0,75.646046964208,0.0011006050000001
0,0,82.519597791284,0.00120072
0,0,89.392589045164,0.0013008450000001
0,0,96.265020921448,0.0014009800000001
0,0,103.13689361571,0.0015011250000001
0,0,110.00820732331,0.00160128
0,0,116.87896223956,0.001701445
0,0,123.74915855968,0.0018016200000001
0,0,130.61879647882,0.001901805
0,0,137.48787619199,0.0020019999999999
0,0,144.35639789413,0.002102205
0,0,151.22436178007,0.0022024199999999
0,0,158.09176804461,0.002302645
0,0,164.9586168823,0.00240288
0,0,171.82490848776,0.0025031249999999
0,0,178.69064305547,0.0026033799999999
0,0,185.55582077975,0.002703645
0,0,192.42044185489,0.00280392
0,0,199.28450647504,0.0029042049999999
0,0,206.14801483432,0.0030044999999999
0,0,213.01096712673,0.0031048050000001
0,0,219.8733635461,0.0032051200000001
0,0,226.7352042863,0.0033054450000001
0,0,233.59648954101,0.00340578
0,0,240.45721950385,0.003506125
0,0,247.3173943683,0.0036064800000001
0,0,254.17701432781,0.0037068450000001
0,0,261.03607957571,0.00380722
0,0,267.89459030523,0.003907605
0,0,274.75254670952,0.004008
0,0,281.60994898159,0.004108405
0,0,288.46679731447,0.00420882
0,0,295.32309190096,0.004309245
0,0,302.17883293384,0.00440968
0,0,309.03402060575,0.0045101249999999
0,0,315.88865510935,0.0046105799999999
0,3.1362790300889e-05,319.51666031667,0.004711045
0,9.7549931077492e-05,319.56205353714,0.00481152
0,0.00016373052342964,319.60744224617,0.0049120049999999
0,0.00022990456865699,319.65282644462,0.0050124999999999
0,0.00029607206805886,319.69820613339,0.0051130050000001
0,0.00036223302293344,319.74358131341,0.0052135200000001
0,0.0004283874345793,319.78895198557,0.0053140450000001
0,0.0004945353042943,319.83431815073,0.0054145800000001
0,0.00056067663337608,319.8796798098,0.0055151250000001
0,0.00062681142312189,319.92503696369,0.00561568
0,0.00069293967482823,319.97038961329,0.005716245
0,0.00075906138979166,320.01573775949,0.0058168200000001
0,0.00082517656930806,320.0610814032,0.005917405
0,0.00089128521467318,320.10642054529,0.006018
0,0.00095738732718205,320.15175518668,0.0061186049999999
0,0.0010234829081297,320.19708532824,0.00621922
0,0.0010895719588104,320.24241097089,0.0063198449999999
0,0.0011556544805185,320.28773211551,0.0064204799999999
0,0.0012217304745473,320.33304876299,0.0065211249999999
0,0.0012877999421905,320.37836091422,0.0066217799999999
0,0.0013538628847407,320.42366857009,0.006722445
0,0.0014199193034906,320.46897173151,0.00682312
0,0.0014859691997321,320.51427039937,0.0069238049999999
0,0.0015520125747572,320.55956457454,0.0070244999999999
0,0.0016180494298573,320.60485425795,0.0071252049999999
0,0.0016840797663234,320.65013945046,0.0072259200000001
0,0.0017501035854459,320.69542015295,0.0073266450000001
0,0.0018161208885151,320.74069636634,0.0074273800000001
0,0.001882131676821,320.78596809151,0.0075281250000001
0,0.001948135951653,320.83123532935,0.0076288800000001
0,0.0020141337142998,320.87649808076,0.0077296450000001
0,0.0020801249660506,320.92175634661,0.00783042
0,0.0021461097081934,320.96701012781,0.007931205
0,0.0022120879420163,321.01225942525,0.008032
0,0.0022780596688069,321.05750423979,0.008132805
0,0.0023440248898522,321.10274457233,0.0082336199999999
0,0.0024099836064389,321.14798042379,0.008334445
0,0.0024759358198536,321.19321179503,0.0084352799999999
0,0.0025418815313822,321.23843868692,0.008536125
0,0.0026078207423103,321.28366110039,0.0086369799999999
0,0.0026737534539233,321.3288790363,0.008737845
0,0.002739679667506,321.37409249554,0.00883872
0,0.0028055993843428,321.41930147903,0.0089396049999999
0,0.0028715126057179,321.46450598759,0.0090404999999999
0,0.0029374193329151,321.50970602216,0.0091414049999999
0,0.0030033195672174,321.55490158363,0.0092423199999999
0,0.0030692133099083,321.60009267286,0.0093432450000001
0,0.0031351005622699,321.64527929071,0.00944418
0,0.0032009813255847,321.69046143813,0.009545125
0,0.0032668556011343,321.73563911595,0.00964608
0,0.0033327233902003,321.78081232509,0.009747045
0,0.0033985846940637,321.82598106642,0.0098480200000001
0,0.0034644395140052,321.87114534082,0.0099490050000001
0,0.0035302878513052,321.91630514919,0.01005
0,0.0035961297072435,321.96146049241,0.010151005
0,0.0036619650830998,322.00661137133,0.01025202
0,0.0037277939801529,322.05175778689,0.010353045
0,0.003793616399682,322.09689973993,0.01045408
0,0.0038594323429652,322.14203723135,0.010555125
0,0.0039252418112807,322.18717026202,0.01065618
0,0.0039910448059061,322.23229883287,0.010757245
0,0.0040568413281187,322.27742294468,0.01085832
0,0.0041226313791955,322.32254259843,0.010959405
0,0.0041884149604127,322.36765779497,0.0110605
0,0.0042541920730466,322.41276853518,0.011161605
0,0.004319962718373,322.45787481992,0.01126272
0,0.0043857268976673,322.50297665009,0.011363845
0,0.0044514846122046,322.54807402657,0.01146498
0,0.0045172358632593,322.59316695026,0.011566125
0,0.0045829806521057,322.63825542201,0.01166728
0,0.0046487189800177,322.6833394427,0.011768445
0,0.0047144508482687,322.72841901321,0.01186962
0,0.0047801762581321,322.77349413445,0.011970805
0,0.0048458952108804,322.81856480727,0.012072
0,0.0049116077077859,322.86363103255,0.012173205
0,0.0049773137501208,322.90869281117,0.01227442
0,0.0050430133391568,322.95375014399,0.012375645
0,0.0051087064761648,322.99880303194,0.01247688
3.0802964718959e-05,0.0051742397068453,322.99527112515,0.012578125
0.0001113337657026,0.0052395187650526,322.9133102056,0.01267938
0.00023993616488138,0.0053045519247121,322.75558144626,0.012780645
0.00041497439306386,0.0053693473570476,322.52476482513,0.01288192
0.00063483500589411,0.0054339131213451,322.22355013239,0.012983205
0.00089792853467384,0.0054982571567391,321.85462860355,0.0130845
0.0012026909832972,0.0055623872747663,321.42068510862,0.013185805
0.0015475851762856,0.0056263111526616,320.92439089716,0.01328712
0.0019311019635131,0.0056900363273686,320.36839689361,0.013388445
0.0023517612868272,0.0057535701902381,319.75532753633,0.01348978
0.0028081131145924,0.005816919982387,319.08777514815,0.013591125
0.0032987382494484,0.0058800927906856,318.36829482698,0.01369248
0.0038222490152545,0.0059430955443514,317.59939983984,0.013793845
0.0043772898291641,0.0060059350121121,316.78355750357,0.01389522
0.0049625376642013,0.0060686177999154,315.92318553377,0.013996605
0.0055767024085114,0.0061311503491543,315.02064884214,0.014098
0.0062185271268682,0.0061935389353789,314.07825676082,0.014199405
0.0068867882301168,0.0062557896674668,313.09826067291,0.01430082
0.0075802955581547,0.0063179084872244,312.08285202666,0.014402245
0.0082978923821335,0.0063799011693913,311.03416071121,0.01450368
0.0090384553310705,0.0064417733220202,309.95425377135,0.014605125
0.0098008942484421,0.0065035303872062,308.84513443893,0.01470658
0.010584151983696,0.0065651776421398,307.70874145917,0.014808045
0.011387204124054,0.0066267202004585,306.54694868907,0.01490952
0.012209058671148,0.0066881630138708,305.36156494798,0.015011005
0.013048755667557,0.0067495108740321,304.1543340982,0.0151125
0.013905366777671,0.0068107684146463,302.92693533646,0.015214005
0.014777994827266,0.0068719401137735,301.6809836762,0.01531552
0.015665773306202,0.0069330302963212,300.41803060245,0.015417045
0.016567865838137,0.0069940431366992,299.13956488121,0.01551858
0.017483465621197,0.0070549826616199,297.84701350637,0.015620125
0.01841179484324,0.0071158527530238,296.54174276843,0.01572168
0.019352104075305,0.0071766571511137,295.22505942921,0.015823245
0.020303671646495,0.0072373994574822,293.89821198868,0.01592482
0.021265803003314,0.0072980831383143,292.56239203061,0.016026405
0.022237830056541,0.0073587115276542,291.21873563415,0.016128
0.023219110518342,0.0074192878307178,289.86832483986,0.016229605
0.02420902723211,0.007479815127244,288.5121891597,0.01633122
0.025206987497457,0.0075402963748678,287.15130712052,0.016432845
0.026212422392587,0.0076007344125061,285.7866078325,0.01653448
0.02722478609609,0.0076611319637481,284.41897257376,0.016636125
0.02824355520989,0.0077214916402373,283.04923638385,0.01673778
0.029268228085364,0.0077818159450382,281.6781896589,0.016839445
0.030298324153844,0.0078421072759824,280.30657974273,0.01694112
0.03133338326316,0.0079023679289815,278.93511250784,0.017042805
0.032372965021414,0.007962600101306,277.56445392168,0.0171445
0.033416648149135,0.008022805894821,276.19523159374,0.017246205
0.034464029840905,0.0080829873191751,274.82803629937,0.01734792
0.035514725137206,0.0081431462949373,273.46342347751,0.017449645
0.036568366307476,0.0082032846566786,272.10191469878,0.01755138
0.037624602244858,0.0082634041559945,270.74399910201,0.017653125
0.038683097873469,0.0083235064644651,269.39013479686,0.01775488
0.039743533568446,0.0083835931765517,268.04075023082,0.017856645
0.040805604589331,0.0084436658124255,266.69624551934,0.01795842
0.041869020527106,0.0085037258207296,265.35699373799,0.018060205
0.042933504765155,0.0085637745812701,264.02334217557,0.018162
0.043998793954254,0.0086238134076377,262.6956135481,0.018263805
0.045064637501808,0.008683843549758,261.37410717304,0.01836562
0.046130797075451,0.0087438661963701,260.05910010353,0.018467445
0.047197046120923,0.0088038824774335,258.75084822302,0.01856928
0.048263169394307,0.0088638934664636,257.44958730008,0.018671125
0.049328962508481,0.0089239001827967,256.15553400421,0.01877298
0.050394231493768,0.0089839035937821,254.86888688272,0.018874845
0.051458792372574,0.0090439046169071,253.58982729936,0.01897672
0.052522470747869,0.0091039041218506,252.31852033561,0.019078605
0.05358510140544,0.009163902932469,251.05511565496,0.0191805
0.0546465279295,0.0092239018287151,249.79974833123,0.019282405
0.055706602331562,0.009283901548491,248.55253964185,0.01938432
0.056765184692318,0.0093439027894353,247.31359782685,0.019486245
0.057822142816168,0.0094039062106484,246.08301881464,0.01958818
0.058877351898276,0.0094639124343539,244.86088691539,0.019690125
0.059930694203701,0.0095239220475005,243.64727548306,0.01979208
0.060982058758427,0.0095839356033045,242.44224754731,0.019894045
0.062031341051926,0.009643953622734,241.24585641593,0.01999602
0.063078442750968,0.0097039765959379,240.05814624897,0.020098005
0.064123271424422,0.0097640049836196,238.87915260571,0.0202
0.065165740278594,0.0098240392183577,237.70890296515,0.020302005
0.066205767902965,0.0098840797058751,236.5474172215,0.02040402
0.067243278025874,0.0099441268262593,235.394708155,0.020506045
0.068278199279959,0.010004180935132,234.25078187961,0.02060808
0.069310464976925,0.010064242364773,233.11563826827,0.020710125
0.070340012891442,0.010124311425201,231.9892713565,0.02081218
0.071366785053767,0.010184388405207,230.87166972568,0.020914245
0.072390727550936,0.010244473573347,229.76281686636,0.02101632
0.073411790336078,0.010304567178891,228.66269152279,0.021118405
0.07442992704569,0.010364669452742,227.57126801952,0.0212205
0.075445094824514,0.010424780608301,226.48851657058,0.021322605
0.07645725415775,0.010484900842312,225.41440357238,0.02142472
0.077466368710423,0.010545030335659,224.34889188076,0.021526845
0.078472405173521,0.010605169254137,223.29194107317,0.02162898
0.079475333116711,0.010665317749183,222.24350769651,0.021731125
0.080475124847399,0.010725475958584,221.20354550139,0.02183328
0.081471755275859,0.010785644007148,220.17200566342,0.021935445
0.082465201786224,0.010845822007348,219.14883699211,0.02203762
0.083455444113066,0.010906010059935,218.13398612814,0.022139805
0.084442464223392,0.010966208254532,217.12739772949,0.022242
0.085426246203897,0.011026416670196,216.12901464666,0.022344205
0.086406776153043,0.01108663537595,215.13877808825,0.02244642
0.087384042078083,0.011146864431307,214.15662777657,0.022548645
0.088358033796547,0.011207103886752,213.18250209443,0.02265088
0.089328742842233,0.011267353784217,212.21633822309,0.022753125
0.090296162375321,0.01132761415753,211.2580722721,0.02285538
0.09126028709659,0.011387885032837,210.30763940144,0.022957645
0.092221113165535,0.011448166429019,209.36497393617,0.02305992
0.093178638122136,0.011508458358075,208.43000947408,0.023162205
0.094132860812217,0.011568760825497,207.50267898687,0.0232645
0.095083781316241,0.011629073830628,206.58291491491,0.023366805
0.09603140088136,0.011689397366998,205.67064925608,0.02346912
0.096975721856565,0.011749731422647,204.76581364905,0.023571445
0.097916747630854,0.011810075980436,203.86833945124,0.02367378
0.098854482574284,0.01187043101834,202.97815781156,0.023776125
0.099788931981725,0.011930796509729,202.09519973872,0.02387848
0.10072010201928,0.011991172423634,201.21939616465,0.023980845
0.10164799967319,0.012051558725002,200.350678004,0.02408322
0.10257263270114,0.012111955374942,199.48897620934,0.024185605
0.10349400958589,0.012172362330953,198.63422182279,0.024288
0.10441213949108,0.012232779547145,197.78634602388,0.024390405
0.10532703221911,0.01229320697445,196.94528017412,0.02449282
0.10623869817109,0.012353644560822,196.1109558583,0.024595245
0.10714714830866,0.012414092251427,195.28330492283,0.02469768
0.10805239411767,0.012474549988824,194.46225951124,0.024800125
0.10895444757357,0.012535017713138,193.64775209686,0.02490258
0.10985332110856,0.012595495362221,192.83971551314,0.025005045
0.11074902758023,0.012655982871816,192.0380829815,0.02510752
0.11164158024182,0.012716480175697,191.2427881369,0.025210005
0.11253099271387,0.012776987205813,190.45376505135,0.0253125
0.11341727895733,0.012837503892427,189.67094825538,0.025415005
0.11430045324796,0.012898030164236,188.89427275769,0.02551752
0.11518053015197,0.012958565948497,188.12367406296,0.025620045
0.11605752450297,0.013019111171142,187.35908818808,0.02572258
0.11693145137996,0.013079665756886,186.60045167673,0.025825125
0.11780232608653,0.013140229629332,185.84770161257,0.02592768
0.11867016413104,0.013200802711068,185.10077563102,0.026030245
0.11953498120787,0.013261384923765,184.35961192972,0.02613282
0.12039679317953,0.013321976188259,183.62414927789,0.026235405
0.12125561605983,0.013382576424642,182.89432702435,0.026338
0.12211146599779,0.013443185552338,182.1700851047,0.026440605
0.12296435926245,0.013503803490181,181.45136404734,0.02654322
0.1238143122285,0.013564430156485,180.73810497858,0.026645845
0.12466134136259,0.013625065469112,180.030249627,0.02674848
0.12550546321045,0.013685709345538,179.3277403268,0.026851125
0.1263466943846,0.013746361702913,178.63052002056,0.02695378
0.12718505155284,0.013807022458118,177.93853226113,0.027056445
0.12802055142725,0.013867691527823,177.25172121295,0.02715912
0.12885321075386,0.013928368828533,176.57003165283,0.027261805
0.12968304630289,0.013989054276641,175.89340896991,0.0273645
0.13051007485947,0.014049747788473,175.2217991653,0.027467205
0.13133431321493,0.014110449280331,174.55514885116,0.02756992
0.13215577815861,0.014171158668533,173.89340524923,0.027672645
0.13297448647002,0.014231875869455,173.23651618909,0.02777538
0.13379045491163,0.014292600799564,172.58443010586,0.027878125
0.13460370022188,0.014353333375453,171.93709603764,0.02798088
0.13541423910878,0.014414073513875,171.29446362256,0.028083645
0.13622208824377,0.014474821131773,170.65648309552,0.02818642
0.137027264256,0.014535576146305,170.02310528467,0.028289205
0.13782978372694,0.014596338474877,169.39428160759,0.028392
0.13862966318537,0.014657108035161,168.76996406722,0.028494805
0.13942691910263,0.014717884745124,168.15010524764,0.02859762
0.14022156788817,0.01477866852305,167.5346583095,0.028700445
0.14101362588545,0.014839459287555,166.92357698547,0.02880328
0.14180310936805,0.014900256957613,166.31681557534,0.028906125
0.14259003453605,0.01496106145257,165.71432894107,0.02900898
0.14337441751269,0.015021872692161,165.11607250164,0.029111845
0.14415627434123,0.015082690596527,164.52200222784,0.02921472
0.14493562098206,0.015143515086229,163.93207463692,0.029317605
0.14571247330997,0.01520434608226,163.34624678715,0.0294205
0.14648684711171,0.015265183506061,162.76447627226,0.029523405
0.14725875808364,0.015326027279526,162.1867212159,0.02962632
0.14802822182963,0.015386877325019,161.61294026593,0.029729245
0.14879525385913,0.015447733565381,161.0430925887,0.02983218
0.14955986958533,0.015508595923938,160.47713786336,0.029935125
0.15032208432361,0.01556946432451,159.91503627598,0.03003808
0.15108191328998,0.015630338691419,159.35674851375,0.030141045
0.1518393715998,0.015691218949496,158.80223575919,0.03024402
0.15259447426652,0.015752105024083,158.25145968423,0.030347005
0.15334723620063,0.015812996841043,157.70438244438,0.03045
0.15409767220866,0.015873894326764,157.16096667285,0.030553005
0.15484579699237,0.015934797408161,156.62117547469,0.03065602
0.15559162514796,0.015995706012681,156.08497242096,0.030759045
0.15633517116544,0.016056620068308,155.55232154288,0.03086208
0.15707644942808,0.01611753950356,155.023187326,0.030965125
0.15781547421197,0.0161784642475,154.49753470442,0.03106818
0.15855225968558,0.016239394229729,153.97532905501,0.031171245
0.15928681990956,0.016300329380392,153.45653619169,0.03127432
0.16001916883642,0.016361269630181,152.94112235973,0.031377405
0.16074932031045,0.016422214910331,152.42905423002,0.0314805
0.16147728806763,0.016483165152622,151.92029889351,0.031583605
0.16220308573559,0.01654412028938,151.41482385562,0.03168672
0.16292672683367,0.016605080253477,150.91259703061,0.031789845
0.16364822477303,0.016666044978328,150.41358673619,0.03189298
0.1643675928568,0.016727014397895,149.91776168798,0.031996125
0.16508484428024,0.016787988446678,149.42509099418,0.03209928
0.1657999921311,0.016848967059723,148.93554415015,0.032202445
0.16651304938979,0.016909950172614,148.44909103313,0.03230562
0.16722402892979,0.016970937721471,147.96570189707,0.032408805
0.16793294351801,0.017031929642956,147.48534736729,0.032512
0.16863980581524,0.017092925874258,147.00799843545,0.032615205
0.16934462837651,0.017153926353104,146.53362645446,0.03271842
0.17004742365166,0.017214931017748,146.06220313339,0.032821645
0.17074820398578,0.017275939806969,145.59370053259,0.03292488
0.17144698161981,0.017336952660074,145.12809105872,0.033028125
0.17214376869103,0.017397969516889,144.66534745992,0.03313138
0.17283857723372,0.017458990317759,144.20544282099,0.033234645
0.17353141917971,0.017520015003544,143.74835055871,0.03333792
0.17422230635903,0.017581043515615,143.29404441713,0.033441205
0.17491125050058,0.017642075795854,142.84249846297,0.0335445
0.17559826323274,0.017703111786648,142.39368708101,0.033647805
0.17628335608412,0.017764151430885,141.9475849697,0.03375112
0.17696654048419,0.017825194671952,141.50416713662,0.033854445
0.17764782776404,0.017886241453731,141.06340889415,0.03395778
0.17832722915707,0.017947291720596,140.62528585515,0.034061125
0.17900475579974,0.018008345417408,140.18977392867,0.03416448
0.1796804187323,0.01806940248951,139.75684931581,0.034267845
0.18035422889957,0.01813046288273,139.32648850549,0.03437122
0.18102619715164,0.018191526543367,138.89866827044,0.034474605
0.18169633424469,0.018252593418195,138.47336566313,0.034578
0.18236465084176,0.018313663454457,138.05055801179,0.034681405
0.1830311575135,0.018374736599859,137.63022291652,0.03478482
0.18369586473897,0.018435812802569,137.21233824542,0.034888245
0.18435878290642,0.018496892011211,136.7968821308,0.03499168
0.18501992231408,0.018557974174862,136.3838329654,0.035095125
0.18567929317099,0.018619059243047,135.9731693987,0.03519858
0.1863369055977,0.018680147165737,135.56487033332,0.035302045
0.18699276962718,0.018741237893343,135.15891492139,0.03540552
0.18764689520552,0.018802331376714,134.75528256104,0.035509005
0.18829929219278,0.018863427567129,134.35395289289,0.0356125
0.1889499703638,0.018924526416297,133.95490579666,0.035716005
0.18959893940892,0.018985627876354,133.55812138776,0.03581952
0.19024620893485,0.019046731899854,133.16358001399,0.035923045
0.19089178846543,0.019107838439769,132.77126225224,0.03602658
0.19153568744243,0.019168947449483,132.38114890524,0.036130125
0.19217791522632,0.019230058882788,131.99322099846,0.03623368
0.19281848109707,0.019291172693885,131.60745977689,0.036337245
0.19345739425493,0.019352288837371,131.22384670199,0.03644082
0.19409466382121,0.019413407268242,130.8423634487,0.036544405
0.19473029883906,0.019474527941888,130.46299190238,0.036648
0.19536430827424,0.019535650814088,130.08571415587,0.036751605
0.19599670101586,0.019596775841005,129.71051250665,0.03685522
0.19662748587718,0.019657902979185,129.33736945394,0.036958845
0.19725667159636,0.019719032185551,128.9662676959,0.03706248
0.19788426683721,0.0197801634174,128.59719012685,0.037166125
0.19851028018993,0.0198412966324,128.23011983455,0.03726978
0.19913472017186,0.019902431788585,127.86504009754,0.037373445
0.19975759522823,0.01996356884435,127.50193438247,0.03747712
0.20037891373289,0.020024707758452,127.14078634152,0.037580805
0.20099868398901,0.020085848490002,126.78157980981,0.0376845
0.20161691422986,0.020146990998462,126.4242988029,0.037788205
0.20223361261945,0.020208135243644,126.06892751432,0.03789192
0.20284878725333,0.020269281185703,125.7154503131,0.037995645
0.2034624461592,0.020330428785136,125.36385174138,0.03809938
0.20407459729771,0.020391578002777,125.01411651204,0.038203125
0.20468524856305,0.020452728799794,124.66622950635,0.03830688
0.20529440778372,0.020513881137686,124.32017577172,0.038410645
0.20590208272318,0.020575034978279,123.97594051937,0.03851442
0.20650828108049,0.020636190283723,123.63350912218,0.038618205
0.20711301049106,0.020697347016487,123.29286711242,0.038722
0.20771627852724,0.02075850513936,122.95400017967,0.038825805
0.20831809269899,0.020819664615443,122.61689416868,0.03892962
0.20891846045457,0.020880825408146,122.2815350772,0.039033445
0.20951738918113,0.02094198748119,121.94790905405,0.03913728
0.21011488620537,0.021003150798597,121.61600239697,0.039241125
0.2107109587942,0.021064315324691,121.28580155072,0.03934498
0.2113056141553,0.021125481024094,120.95729310506,0.039448845
0.2118988594378,0.021186647861723,120.63046379285,0.03955272
0.21249070173286,0.021247815802786,120.30530048811,0.039656605
0.21308114807427,0.021308984812779,119.98179020415,0.0397605
0.21367020543908,0.021370154857485,119.65992009178,0.039864405
0.21425788074815,0.021431325902969,119.33967743742,0.03996832
0.21484418086679,0.021492497915576,119.02104966135,0.040072245
0.21542911260527,0.021553670861926,118.70402431592,0.04017618
0.21601268271947,0.021614844708915,118.38858908385,0.040280125
0.2165948979114,0.02167601942371,118.07473177649,0.04038408
0.21717576482976,0.021737194973743,117.76244033217,0.040488045
0.21775529007053,0.021798371326716,117.4517028145,0.04059202
0.21833348017748,0.02185954845059,117.14250741076,0.040696005
0.21891034164274,0.021920726313588,116.83484243032,0.0408
0.21948588090733,0.021981904884189,116.52869630301,0.040904005
0.22006010436169,0.022043084131128,116.22405757758,0.04100802
0.2206330183462,0.022104264023389,115.92091492019,0.041112045
0.2212046291517,0.022165444530209,115.61925711285,0.04121608
0.22177494302003,0.022226625621069,115.31907305198,0.041320125
0.22234396614448,0.022287807265695,115.0203517469,0.04142418
0.22291170467036,0.022348989434055,114.72308231844,0.041528245
0.22347816469544,0.022410172096355,114.42725399745,0.04163232
0.22404335227048,0.022471355223039,114.13285612346,0.041736405
0.22460727339971,0.022532538784785,113.83987814326,0.0418405
0.22516993404126,0.022593722752503,113.54830960956,0.041944605
0.2257313401077,0.02265490709733,113.25814017965,0.04204872
0.22629149746648,0.022716091790634,112.96935961407,0.042152845
0.22685041194037,0.022777276804004,112.68195777535,0.04225698
0.22740808930798,0.022838462109256,112.39592462664,0.042361125
0.22796453530412,0.022899647678421,112.11125023057,0.04246528
0.22851975562036,0.022960833483751,111.82792474789,0.042569445
0.22907375590536,0.023022019497714,111.54593843636,0.04267362
0.22962654176538,0.02308320569299,111.26528164945,0.042777805
0.23017811876468,0.023144392042471,110.9859448352,0.042882
0.23072849242597,0.02320557851926,110.70791853503,0.042986205
0.23127766823081,0.023266765096663,110.43119338261,0.04309042
0.23182564963114,0.023327951758104,110.15576113963,0.043194645
0.23237244408849,0.023389138467029,109.88161154133,0.04329888
0.23291805696103,0.02345032519737,109.60873549291,0.043403125
0.23346249356753,0.023511511923252,109.33712398729,0.04350738
0.23400575918769,0.023572698619001,109.06676810406,0.043611645
0.2345478590626,0.023633885259136,108.79765900844,0.04371592
0.23508879839507,0.023695071818368,108.52978795019,0.043820205
0.23562858235005,0.0237562582716,108.26314626266,0.0439245
0.23616721605498,0.023817444593923,107.99772536171,0.044028805
0.23670470460017,0.023878630760615,107.73351674476,0.04413312
0.23724105303917,0.023939816747139,107.4705119898,0.044237445
0.23777626638914,0.024001002529142,107.20870275442,0.04434178
0.23831034963117,0.02406218808245,106.94808077488,0.044446125
0.23884330771072,0.024123373383073,106.68863786511,0.04455048
0.23937514553785,0.024184558407196,106.43036591588,0.044654845
0.23990586798768,0.02424574313118,106.17325689382,0.04475922
0.24043547990065,0.024306927531561,105.91730284052,0.044863605
0.24096398608293,0.024368111585049,105.66249587168,0.044968
0.24149139130668,0.024429295268523,105.40882817622,0.045072405
0.24201770031043,0.024490478559033,105.15629201543,0.04517682
0.24254291779941,0.024551661433795,104.90487972208,0.045281245000001
0.24306704844582,0.024612843870194,104.65458369964,0.04538568
0.24359009688923,0.024674025845778,104.40539642142,0.045490125
0.24411206773681,0.024735207338256,104.15731042976,0.04559458
0.24463296556372,0.024796388325502,103.91031833524,0.045699045
0.24515279491333,0.024857568785547,103.66441281589,0.04580352
0.24567156029764,0.024918748696581,103.41958661638,0.045908005
0.24618926619745,0.024979928036953,103.17583254729,0.0460125
0.24670591706277,0.025041106785165,102.93314348432,0.046117005
0.24722151731303,0.025102284919872,102.69151236758,0.04622152
0.24773607133745,0.025163462419885,102.4509322008,0.046326045
0.24824958349523,0.025224639264162,102.21139605066,0.04643058
0.24876205811594,0.025285815431812,101.97289704601,0.046535125
0.24927349949972,0.025346990902094,101.73542837724,0.04663968
0.24978391191758,0.02540816565441,101.49898329549,0.046744245
0.25029329961169,0.025469339668311,101.26355511205,0.04684882
0.25080166679564,0.02553051292349,101.02913719762,0.046953405000001
0.25130901765471,0.025591685399782,100.79572298167,0.047058
0.25181535634613,0.025652857077165,100.56330595176,0.047162605
0.25232068699932,0.025714027935756,100.33187965291,0.04726722
0.25282501371621,0.02577519795581,100.10143768695,0.047371845
0.25332834057144,0.025836367117721,99.871973711863,0.04747648
0.25383067161262,0.025897535402019,99.643481441194,0.047581125
0.25433201086061,0.025958702789367,99.415954643412,0.04768578
0.25483236230973,0.026019869260564,99.189387141312,0.047790445
0.25533172992802,0.026081034796539,98.963772811394,0.04789512
0.2558301176575,0.026142199378354,98.739105583302,0.047999805
0.25632752941436,0.0262033629872,98.515379439215,0.0481045
0.25682396908926,0.026264525604398,98.292588413267,0.048209205
0.2573194405475,0.026325687211395,98.070726591,0.04831392
0.2578139476293,0.026386847789766,97.849788108788,0.048418645
0.25830749414998,0.02644800732121,97.629767153274,0.04852338
0.25880008390025,0.02650916578755,97.41065796084,0.048628125
0.25929172064637,0.026570323170735,97.192454817059,0.04873288
0.25978240813038,0.026631479452832,96.975152056164,0.048837645
0.26027215007037,0.026692634616031,96.758744060511,0.04894242
0.26076095016063,0.026753788642642,96.543225260084,0.049047205
0.26124881207189,0.026814941515093,96.328590131958,0.049152000000001
0.26173573945156,0.026876093215929,96.114833199809,0.049256805
0.26222173592387,0.026937243727814,95.901949033407,0.04936162
0.26270680509012,0.026998393033524,95.689932248128,0.049466445000001
0.26319095052892,0.027059541115953,95.478777504472,0.04957128
0.26367417579629,0.027120687958106,95.268479507558,0.049676125
0.26415648442595,0.027181833543103,95.059033006687,0.04978098
0.26463787992948,0.027242977854173,94.850432794848,0.049885845
0.26511836579651,0.027304120874658,94.642673708277,0.04999072
0.26559794549494,0.027365262588007,94.435750625972,0.050095605
0.26607662247109,0.027426402977779,94.229658469272,0.0502005
0.26655440014992,0.027487542027641,94.024392201395,0.050305405
0.26703128193519,0.027548679721367,93.81994682702,0.05041032
0.26750727120967,0.027609816042836,93.61631739182,0.050515245
0.26798237133532,0.027670950976032,93.413498982059,0.05062018
0.26845658565345,0.027732084505043,93.211486724166,0.050725125000001
0.2689299174849,0.02779321661406,93.010275784327,0.050830080000001
0.26940237013024,0.027854347287378,92.809861368053,0.050935045000001
0.26987394686992,0.027915476509391,92.61023871979,0.05104002
0.27034465096445,0.027976604264595,92.411403122504,0.051145005
0.27081448565458,0.028037730537584,92.213349897298,0.05125
0.27128345416145,0.028098855313052,92.016074403017,0.051355005
0.27175155968677,0.028159978575792,91.819572035856,0.05146002
0.27221880541297,0.028221100310692,91.623838228984,0.051565045
0.27268519450339,0.028282220502737,91.428868452163,0.05167008
0.27315073010242,0.028343339137009,91.234658211382,0.051775125
0.27361541533566,0.028404456198682,91.041203048479,0.05188018
0.27407925331009,0.028465571673026,90.848498540794,0.051985245
0.27454224711421,0.028526685545403,90.656540300782,0.05209032
0.27500439981822,0.028587797801268,90.465323975702,0.052195405
0.27546571447412,0.028648908426167,90.274845247221,0.0523005
0.27592619411594,0.028710017405737,90.085099831097,0.052405605
0.27638584175981,0.028771124725706,89.89608347683,0.05251072
0.27684466040418,0.02883223037189,89.707791967326,0.052615845
0.27730265302991,0.028893334330193,89.520221118563,0.052720980000001
0.27775982260042,0.028954436586609,89.333366779252,0.052826125000001
0.27821617206189,0.029015537127217,89.147224830529,0.052931280000001
0.27867170434334,0.029076635938184,88.961791185623,0.053036445000001
0.27912642235677,0.029137733005762,88.777061789546,0.053141620000001
0.27958032899737,0.029198828316287,88.593032618759,0.053246805000001
0.28003342714356,0.029259921856181,88.409699680896,0.053352
0.28048571965721,0.029321013611949,88.227059014431,0.053457205
0.2809372093837,0.029382103570179,88.045106688384,0.05356242
0.28138789915214,0.02944319171754,87.863838802015,0.053667645
0.28183779177541,0.029504278040785,87.683251484549,0.05377288
0.28228689005036,0.029565362526746,87.503340894855,0.053878125
0.2827351967579,0.029626445162336,87.324103221189,0.05398338
0.28318271466316,0.029687525934547,87.14553468088,0.054088645
0.28362944651557,0.029748604830451,86.967631520071,0.05419392
0.28407539504902,0.029809681837198,86.790390013421,0.054299205
0.284520562982,0.029870756942016,86.613806463856,0.0544045
0.28496495301767,0.02993183013221,86.437877202254,0.054509805000001
0.28540856784403,0.02999290139516,86.262598587231,0.054615120000001
0.28585141013401,0.030053970718325,86.087967004836,0.054720445000001
0.28629348254559,0.030115038089236,85.913978868296,0.054825780000001
0.28673478772195,0.030176103495502,85.740630617767,0.054931125000001
0.28717532829155,0.030237166924803,85.56791872007,0.055036480000001
0.28761510686826,0.030298228364895,85.395839668441,0.055141845
0.28805412605147,0.030359287803605,85.224389982275,0.055247220000001
0.28849238842621,0.030420345228835,85.053566206882,0.055352605
0.28892989656326,0.030481400628557,84.883364913241,0.055458000000001
0.28936665301926,0.030542453990813,84.713782697767,0.055563405
0.2898026603368,0.03060350530372,84.544816182053,0.055668820000001
0.29023792104458,0.03066455455546,84.376462012651,0.055774245
0.29067243765745,0.030725601734288,84.208716860829,0.05587968
0.29110621267657,0.030786646828529,84.041577422343,0.055985125
0.2915392485895,0.030847689826572,83.875040417209,0.05609058
0.29197154787029,0.03090873071688,83.709102589471,0.056196045
0.29240311297958,0.030969769487978,83.543760706989,0.05630152
0.29283394636474,0.031030806128462,83.379011561211,0.056407005
0.29326405045994,0.031091840626993,83.21485196695,0.056512500000001
0.29369342768626,0.031152872972298,83.051278762181,0.056618005000001
0.29412208045177,0.031213903153169,82.888288807808,0.056723520000001
0.29455001115167,0.031274931158464,82.725878987475,0.056829045000001
0.29497722216834,0.031335956977106,82.564046207354,0.056934580000001
0.29540371587148,0.03139698059808,82.402787395911,0.057040125000001
0.29582949461816,0.031458002010436,82.242099503738,0.057145680000001
0.29625456075296,0.031519021203287,82.081979503333,0.057251245000001
0.29667891660802,0.031580038165808,81.922424388901,0.057356820000001
0.29710256450317,0.031641052887238,81.76343117616,0.057462405000001
0.29752550674602,0.031702065356875,81.604996902142,0.057568
0.297947745632,0.03176307556408,81.44711862501,0.057673605
0.29836928344453,0.031824083498274,81.28979342385,0.05777922
0.29879012245503,0.031885089148939,81.1330183985,0.057884845
0.29921026492307,0.031946092505616,80.976790669345,0.05799048
0.29962971309643,0.032007093557906,80.821107377156,0.058096125
0.30004846921117,0.032068092295469,80.665965682877,0.05820178
0.30046653549176,0.032129088708024,80.511362767477,0.058307445000001
0.30088391415113,0.032190082785346,80.35729583174,0.058413120000001
0.30130060739076,0.032251074517271,80.203762096117,0.058518805000001
0.30171661740078,0.032312063893689,80.050758800528,0.058624500000001
0.30213194636002,0.03237305090455,79.898283204203,0.058730205000001
0.30254659643614,0.032434035539859,79.746332585499,0.058835920000001
0.30296056978566,0.032495017789675,79.594904241747,0.058941645000001
0.30337386855408,0.032555997644116,79.443995489071,0.059047380000001
0.30378649487593,0.032616975093355,79.293603662222,0.059153125000001
0.30419845087488,0.032677950127616,79.143726114426,0.059258880000001
0.30460973866378,0.032738922737182,78.994360217212,0.059364645000001
0.30502036034478,0.032799892912388,78.84550336025,0.059470420000001
0.30543031800937,0.032860860643622,78.697152951205,0.059576205
0.30583961373846,0.032921825921328,78.549306415561,0.059682000000001
0.3062482496025,0.032982788735999,78.401961196481,0.059787805
0.30665622766149,0.033043749078184,78.255114754654,0.059893620000001
0.30706354996509,0.033104706938483,78.108764568121,0.059999445000001
0.3074702185527,0.033165662307546,77.962908132157,0.060105280000001
0.30787623545351,0.033226615176078,77.817542959094,0.060211125000001
0.30828160268659,0.033287565534831,77.672666578194,0.060316980000001
0.30868632226094,0.033348513374612,77.528276535485,0.060422845000001
0.30909039617559,0.033409458686274,77.384370393636,0.060528720000001
0.30949382641964,0.033470401460724,77.240945731798,0.060634605000001
0.30989661497235,0.033531341688916,77.098000145464,0.060740500000001
0.3102987638032,0.033592279361854,76.955531246345,0.060846405000001
0.31070027487196,0.033653214470591,76.813536662218,0.060952320000001
0.31110115012876,0.033714147006229,76.672014036784,0.061058245000001
0.31150139151416,0.033775076959917,76.530961029549,0.061164180000001
0.31190100095919,0.033836004322855,76.390375315676,0.061270125000001
0.31229998038545,0.033896929086286,76.250254585862,0.061376080000001
0.31269833170517,0.033957851241504,76.110596546193,0.061482045000001
0.31309605682125,0.03401877077985,75.971398918035,0.061588020000001
0.31349315762734,0.034079687692708,75.83265943788,0.061694005000001
0.31388963600792,0.034140601971512,75.694375857247,0.061800000000001
0.31428549383832,0.034201513607741,75.556545942527,0.061906005000001
0.31468073298482,0.034262422592919,75.419167474879,0.06201202
0.31507535530472,0.034323328918616,75.282238250099,0.062118045000001
0.31546936264635,0.034384232576446,75.145756078493,0.062224080000001
0.31586275684916,0.03444513355807,75.009718784771,0.062330125000001
0.31625553974382,0.034506031855191,74.874124207905,0.062436180000001
0.3166477131522,0.034566927459558,74.738970201034,0.062542245000001
0.31703927888749,0.034627820362962,74.604254631326,0.062648320000001
0.31743023875423,0.03468871055724,74.469975379878,0.062754405000001
0.31782059454838,0.034749598034271,74.33613034159,0.062860500000001
0.31821034805738,0.034810482785975,74.202717425059,0.062966605000001
0.31859950106019,0.034871364804319,74.069734552457,0.063072720000001
0.31898805532736,0.034932244081308,73.937179659428,0.063178845000001
0.31937601262109,0.034993120608993,73.805050694972,0.063284980000001
0.31976337469527,0.035053994379464,73.673345621346,0.063391125000001
0.32015014329556,0.035114865384854,73.542062413931,0.063497280000001
0.3205363201594,0.035175733617336,73.411199061159,0.063603445000001
0.32092190701613,0.035236599069127,73.280753564377,0.063709620000001
0.32130690558697,0.03529746173248,73.150723937757,0.063815805
0.32169131758513,0.035358321599693,73.021108208194,0.063922000000001
0.32207514471584,0.035419178663101,72.891904415188,0.064028205000001
0.32245838867641,0.035480032915082,72.763110610757,0.064134420000001
0.32284105115626,0.03554088434805,72.634724859334,0.064240645000001
0.32322313383699,0.035601732954462,72.506745237657,0.064346880000001
0.32360463839245,0.035662578726813,72.379169834678,0.064453125000001
0.32398556648876,0.035723421657634,72.251996751468,0.064559380000001
0.32436591978434,0.0357842617395,72.125224101106,0.064665645000001
0.32474569993003,0.03584509896502,71.998850008599,0.064771920000001
0.32512490856886,0.035905933326845,71.872872610859,0.064878205000001
0.32550354733678,0.035966764817659,71.747290056363,0.064984500000001
0.32588161786206,0.036027593430188,71.622100505312,0.065090805000001
0.32625912176551,0.036088419157192,71.497302129447,0.065197120000001
0.3266360606606,0.036149241991472,71.372893111971,0.065303445000001
0.32701243615343,0.036210061925862,71.248871647442,0.065409780000001
0.32738824984285,0.036270878953237,71.125235941692,0.065516125000001
0.32776350332045,0.036331693066504,71.00198421174,0.065622480000001
0.32813819817064,0.036392504258609,70.879114685698,0.065728845000001
0.32851233597066,0.036453312522534,70.756625602689,0.065835220000001
0.32888591829069,0.036514117851295,70.634515212753,0.065941605000001
0.32925894669383,0.036574920237946,70.512781776772,0.066048000000001
0.32963142273616,0.036635719675575,70.391423566371,0.066154405000001
0.3300033479668,0.036696516157305,70.27043886385,0.066260820000001
0.33037472392796,0.036757309676293,70.149825962093,0.066367245000001
0.33074555215497,0.036818100225733,70.029583164475,0.066473680000001
0.3311158341763,0.036878887798852,69.909708784802,0.066580125000001
0.33148557151364,0.036939672388912,69.790201147216,0.066686580000001
0.33185476568194,0.037000453989207,69.671058586111,0.066793045000001
0.33222341818943,0.037061232593067,69.55227944607,0.066899520000001
0.33259153053766,0.037122008193856,69.433862081769,0.067006005000001
0.33295910422158,0.037182780784969,69.31580485791,0.067112500000001
0.33332614072953,0.037243550359835,69.198106149138,0.067219005000001
0.33369264154334,0.037304316911918,69.08076433997,0.067325520000001
0.3340586081383,0.037365080434712,68.963777824716,0.067432045000001
0.33442404198326,0.037425840921746,68.847145007397,0.067538580000001
0.33478894454062,0.037486598366579,68.730864301689,0.067645125000001
0.33515331726644,0.037547352762804,68.61493413083,0.067751680000001
0.33551716161039,0.037608104104044,68.499352927556,0.067858245000001
0.33588047901587,0.037668852383957,68.384119134027,0.067964820000001
0.33624327091998,0.037729597596229,68.269231201766,0.068071405000001
0.33660553875361,0.03779033973458,68.154687591558,0.068178000000001
0.33696728394146,0.037851078792761,68.040486773422,0.068284605000001
0.33732850790207,0.037911814764551,67.926627226504,0.068391220000001
0.33768921204786,0.037972547643764,67.813107439028,0.068497845
0.33804939778519,0.038033277424241,67.699925908223,0.068604480000001
0.33840906651434,0.038094004099856,67.587081140251,0.068711125
0.33876821962964,0.038154727664513,67.474571650149,0.06881778
0.33912685851939,0.038215448112145,67.362395961755,0.068924445000001
0.33948498456599,0.038276165436715,67.250552607644,0.06903112
0.33984259914594,0.038336879632216,67.13904012906,0.069137805
0.34019970362987,0.038397590692671,67.027857075856,0.0692445
0.34055629938259,0.038458298612132,66.917002006431,0.069351205
0.34091238776311,0.03851900338468,66.806473487656,0.06945792
0.34126797012468,0.038579705004424,66.696270094829,0.069564645
0.34162304781483,0.038640403465505,66.586390411589,0.06967138
0.34197762217541,0.038701098762089,66.476833029874,0.069778125
0.34233169454258,0.038761790888373,66.367596549853,0.069884880000001
0.34268526624691,0.038822479838581,66.258679579862,0.069991645
0.34303833861338,0.038883165606966,66.150080736347,0.070098420000001
0.34339091296139,0.038943848187808,66.041798643807,0.070205205
0.34374299060483,0.039004527575417,65.933831934725,0.070312
0.3440945728521,0.039065203764126,65.826179249522,0.070418805000001
0.34444566100614,0.039125876748302,65.718839236485,0.070525620000001
0.34479625636447,0.039186546522333,65.611810551732,0.070632445000001
0.34514636021919,0.039247213080639,65.505091859123,0.070739280000001
0.34549597385705,0.039307876417665,65.398681830231,0.070846125
0.34584509855948,0.039368536527882,65.292579144274,0.07095298
0.34619373560259,0.039429193405789,65.186782488056,0.071059845000001
0.34654188625722,0.039489847045911,65.081290555922,0.07116672
0.34688955178899,0.0395504974428,64.976102049695,0.071273605
0.34723673345829,0.039611144591033,64.871215678628,0.0713805
0.34758343252032,0.039671788485215,64.766630159343,0.071487405
0.34792965022516,0.039732429119975,64.662344215785,0.07159432
0.34827538781775,0.039793066489969,64.558356579167,0.071701245
0.34862064653795,0.039853700589878,64.454665987911,0.07180818
0.34896542762054,0.039914331414409,64.351271187613,0.071915125
0.34930973229528,0.039974958958294,64.248170930971,0.07202208
0.34965356178693,0.04003558321629,64.145363977749,0.072129045
0.34999691731527,0.040096204183179,64.042849094719,0.07223602
0.35033980009513,0.040156821853769,63.940625055617,0.072343005
0.35068221133642,0.040217436222892,63.838690641084,0.07245
0.35102415224417,0.040278047285404,63.737044638629,0.072557005
0.35136562401853,0.040338655036185,63.635685842568,0.07266402
0.35170662785482,0.040399259470143,63.534613053988,0.072771045
0.35204716494357,0.040459860582206,63.433825080687,0.07287808
0.35238723647051,0.040520458367327,63.333320737132,0.072985125
0.3527268436166,0.040581052820486,63.233098844421,0.07309218
0.35306598755811,0.040641643936682,63.133158230214,0.073199245
0.35340466946659,0.040702231710941,63.03349772871,0.07330632
0.3537428905089,0.040762816138311,62.934116180584,0.073413405
0.35408065184729,0.040823397213866,62.835012432957,0.0735205
0.35441795463935,0.040883974932699,62.736185339336,0.073627605
0.35475480003809,0.040944549289929,62.637633759575,0.07373472
0.35509118919195,0.041005120280698,62.539356559838,0.073841845
0.35542712324482,0.041065687900169,62.44135261254,0.07394898
0.35576260333606,0.041126252143531,62.34362079632,0.074056125
0.35609763060056,0.041186813005992,62.246159995982,0.07416328
0.35643220616872,0.041247370482785,62.148969102465,0.074270445
0.35676633116649,0.041307924569163,62.052047012792,0.07437762
0.35710000671542,0.041368475260405,61.955392630035,0.074484805
0.35743323393264,0.041429022551808,61.859004863259,0.074592
0.35776601393092,0.041489566438694,61.762882627506,0.074699205
0.35809834781868,0.041550106916405,61.667024843726,0.07480642
0.3584302367,0.041610643980306,61.571430438752,0.074913645
0.35876168167469,0.041671177625783,61.476098345263,0.07502088
0.35909268383826,0.041731707848243,61.381027501726,0.075128125
0.35942324428196,0.041792234643116,61.286216852376,0.07523538
0.35975336409282,0.041852758005852,61.191665347165,0.075342645
0.36008304435365,0.041913277931923,61.097371941725,0.07544992
0.36041228614311,0.041973794416821,61.003335597331,0.075557205
0.36074109053564,0.042034307456059,60.909555280864,0.0756645
0.36106945860159,0.042094817045172,60.816029964766,0.075771805
0.36139739140716,0.042155323179715,60.72275862701,0.07587912
0.36172489001448,0.042215825855264,60.629740251058,0.075986445
0.36205195548157,0.042276325067415,60.536973825827,0.07609378
0.36237858886244,0.042336820811784,60.444458345648,0.076201125
0.36270479120704,0.042397313084007,60.35219281023,0.07630848
0.36303056356132,0.042457801879743,60.260176224627,0.076415845
0.36335590696725,0.042518287194668,60.168407599205,0.07652322
0.36368082246281,0.042578769024479,60.076885949592,0.076630605
0.36400531108208,0.042639247364892,59.985610296657,0.076738
0.36432937385517,0.042699722211645,59.894579666473,0.076845405
0.36465301180831,0.042760193560492,59.80379309027,0.07695282
0.36497622596385,0.042820661407211,59.713249604422,0.077060245
0.36529901734027,0.042881125747595,59.622948250389,0.07716768
0.3656213869522,0.042941586577459,59.532888074699,0.077275125
0.36594333581048,0.043002043892638,59.44306812891,0.07738258
0.36626486492211,0.043062497688982,59.353487469576,0.077490045
0.36658597529034,0.043122947962365,59.264145158208,0.07759752
0.36690666791464,0.043183394708676,59.175040261259,0.077705005
0.36722694379076,0.043243837923826,59.086171850067,0.0778125
0.3675468039107,0.043304277603741,58.997539000841,0.077920005
0.36786624926278,0.043364713744369,58.909140794623,0.07802752
0.36818528083163,0.043425146341675,58.820976317252,0.078135045
0.36850389959821,0.043485575391643,58.733044659339,0.07824258
0.36882210653985,0.043546000890274,58.645344916232,0.078350125
0.36913990263024,0.043606422833589,58.557876187987,0.07845768
0.36945728883947,0.043666841217625,58.470637579337,0.078565245
0.36977426613405,0.04372725603844,58.383628199655,0.07867282
0.37009083547691,0.043787667292106,58.296847162932,0.078780405
0.37040699782742,0.043848074974718,58.210293587742,0.078888
0.37072275414144,0.043908479082383,58.123966597217,0.078995605
0.3710381053713,0.04396887961123,58.037865319013,0.07910322
0.37135305246583,0.044029276557403,57.951988885279,0.079210845
0.37166759637041,0.044089669917066,57.86633643263,0.07931848
0.37198173802692,0.044150059686398,57.780907102127,0.079426125
0.37229547837382,0.044210445861595,57.695700039227,0.07953378
0.37260881834615,0.044270828438873,57.610714393776,0.079641445
0.37292175887552,0.044331207414464,57.525949319971,0.07974912
0.37323430089017,0.044391582784614,57.441403976327,0.079856805
0.37354644531495,0.044451954545591,57.357077525662,0.0799645
0.37385819307138,0.044512322693676,57.272969135058,0.080072205
0.37416954507761,0.044572687225168,57.189077975835,0.08017992
0.37448050224849,0.044633048136384,57.105403223537,0.080287645
0.37479106549555,0.044693405423655,57.021944057883,0.08039538
0.37510123572704,0.04475375908333,56.938699662762,0.080503125
0.37541101384795,0.044814109111774,56.855669226187,0.08061088
0.37572040075998,0.04487445550537,56.772851940283,0.080718645
0.37602939736163,0.044934798260515,56.690247001255,0.08082642
0.37633800454814,0.044995137373623,56.607853609363,0.080934205
0.37664622321159,0.045055472841125,56.525670968894,0.081042
0.37695405424081,0.045115804659466,56.443698288137,0.081149805
0.37726149852151,0.045176132825108,56.361934779367,0.08125762
0.37756855693621,0.04523645733453,56.280379658801,0.081365445
0.3778752303643,0.045296778184226,56.199032146594,0.08147328
0.37818151968204,0.045357095370704,56.117891466794,0.081581125
0.37848742576256,0.04541740889049,56.036956847335,0.08168898
0.37879294947593,0.045477718740125,55.956227520002,0.081796845
0.37909809168911,0.045538024916164,55.875702720408,0.08190472
0.379402853266,0.045598327415178,55.795381687975,0.082012605
0.37970723506746,0.045658626233756,55.715263665907,0.0821205
0.38001123795129,0.045718921368498,55.63534790116,0.082228405
0.38031486277231,0.045779212816021,55.555633644431,0.08233632
0.3806181103823,0.045839500572959,55.476120150125,0.082444245
0.38092098163005,0.045899784635958,55.396806676338,0.08255218
0.38122347736139,0.045960065001679,55.317692484829,0.082660125
0.38152559841918,0.046020341666802,55.238776840997,0.08276808
0.38182734564334,0.046080614628016,55.160059013865,0.082876045
0.38212871987085,0.046140883882029,55.081538276049,0.08298402
0.38242972193576,0.046201149425561,55.003213903744,0.083092005
0.38273035266925,0.046261411255349,54.925085176694,0.0832
0.38303061289956,0.046321669368142,54.84715137818,0.083308005
0.3833305034521,0.046381923760705,54.769411794981,0.08341602
0.3836300251494,0.046442174429817,54.691865717374,0.083524045
0.38392917881114,0.046502421372271,54.614512439096,0.08363208
0.38422796525415,0.046562664584876,54.537351257332,0.083740125
0.38452638529248,0.046622904064451,54.460381472687,0.08384818
0.38482443973733,0.046683139807833,54.383602389168,0.083956245
0.38512212939713,0.046743371811872,54.307013314166,0.08406432
0.38541945507753,0.046803600073432,54.230613558436,0.084172405
0.3857164175814,0.046863824589388,54.154402436066,0.0842805
0.38601301770886,0.046924045356634,54.07837926447,0.084388605
0.3863092562573,0.046984262372074,54.002543364355,0.08449672
0.38660513402137,0.047044475632626,53.926894059715,0.084604845
0.38690065179302,0.047104685135223,53.851430677797,0.08471298
0.38719581036148,0.047164890876811,53.776152549095,0.084821125
0.3874906105133,0.047225092854349,53.70105900732,0.08492928
0.38778505303236,0.047285291064809,53.626149389377,0.085037445
0.38807913869987,0.047345485505178,53.551423035361,0.08514562
0.3883728682944,0.047405676172455,53.476879288529,0.085253805
0.38866624259185,0.047465863063653,53.402517495277,0.085362
0.38895926236554,0.047526046175796,53.328337005126,0.085470205
0.38925192838615,0.047586225505925,53.254337170703,0.08557842
0.38954424142175,0.04764640105109,53.180517347722,0.085686645
0.38983620223785,0.047706572808357,53.106876894962,0.08579488
0.39012781159737,0.047766740774803,53.03341517426,0.085903124999999
0.39041907026066,0.047826904947519,52.960131550472,0.086011379999999
0.39070997898552,0.047887065323607,52.887025391479,0.086119644999999
0.39100053852721,0.047947221900185,52.814096068151,0.086227919999999
0.39129074963847,0.048007374674379,52.741342954337,0.086336204999999
0.39158061306952,0.048067523643333,52.668765426845,0.086444499999999
0.39187012956806,0.048127668804199,52.596362865426,0.086552804999999
0.39215929987932,0.048187810154145,52.524134652756,0.086661119999999
0.39244812474604,0.048247947690347,52.452080174415,0.086769444999999
0.39273660490848,0.048308081409998,52.380198818879,0.086877779999999
0.39302474110445,0.048368211310302,52.308489977492,0.086986124999999
0.39331253406932,0.048428337388472,52.236953044456,0.087094479999999
0.393599984536,0.048488459641739,52.165587416812,0.087202844999999
0.393887093235,0.04854857806734,52.094392494421,0.087311219999999
0.39417386089441,0.048608692662528,52.023367679953,0.087419604999999
0.39446028823991,0.048668803424568,51.952512378866,0.087527999999999
0.3947463759948,0.048728910350736,51.881825999389,0.087636404999999
0.39503212487999,0.048789013438318,51.81130795251,0.087744819999999
0.39531753561402,0.048849112684615,51.740957651957,0.087853244999999
0.39560260891309,0.048909208086939,51.670774514182,0.087961679999999
0.39588734549102,0.048969299642613,51.600757958344,0.088070124999999
0.39617174605933,0.049029387348972,51.530907406295,0.08817858
0.39645581132717,0.049089471203361,51.461222282567,0.088287044999999
0.39673954200142,0.049149551203141,51.391702014348,0.088395519999999
0.39702293878663,0.04920962734568,51.322346031478,0.088504004999999
0.39730600238505,0.049269699628359,51.253153766421,0.088612499999999
0.39758873349666,0.049329768048571,51.18412465426,0.088721004999999
0.39787113281916,0.049389832603721,51.115258132679,0.088829519999999
0.39815320104799,0.049449893291223,51.046553641944,0.088938044999999
0.39843493887632,0.049509950108503,50.978010624887,0.089046579999999
0.39871634699511,0.049570003053001,50.909628526907,0.089155124999999
0.39899742609306,0.049630052122164,50.841406795935,0.089263679999999
0.39927817685665,0.049690097313453,50.773344882428,0.089372244999999
0.39955859997015,0.049750138624339,50.705442239355,0.089480819999999
0.39983869611563,0.049810176052304,50.637698322185,0.089589404999999
0.40011846597297,0.049870209594841,50.570112588862,0.089697999999999
0.40039791021985,0.049930239249454,50.502684499807,0.089806604999999
0.40067702953179,0.049990265013657,50.435413517889,0.089915219999999
0.40095582458215,0.050050286884978,50.368299108419,0.090023844999999
0.40123429604212,0.050110304860951,50.301340739134,0.090132479999999
0.40151244458076,0.050170318939124,50.234537880185,0.090241124999999
0.40179027086499,0.050230329117056,50.167890004114,0.090349779999999
0.4020677755596,0.050290335392314,50.101396585862,0.090458444999999
0.40234495932726,0.050350337762477,50.035057102727,0.090567119999999
0.40262182282855,0.050410336225135,49.968871034371,0.090675804999999
0.40289836672195,0.050470330777887,49.9028378628,0.090784499999999
0.40317459166382,0.050530321418345,49.836957072354,0.090893204999999
0.40345049830849,0.050590308144129,49.771228149685,0.091001919999999
0.40372608730818,0.05065029095287,49.705650583754,0.091110644999999
0.40400135931307,0.050710269842209,49.640223865811,0.091219379999999
0.40427631497127,0.050770244809799,49.574947489387,0.091328124999999
0.40455095492889,0.050830215853301,49.509820950283,0.091436879999999
0.40482527982994,0.050890182970386,49.444843746542,0.091545644999999
0.40509929031647,0.050950146158738,49.380015378459,0.091654419999999
0.40537298702847,0.051010105416048,49.31533534855,0.091763204999999
0.40564637060395,0.051070060740019,49.250803161552,0.091871999999999
0.40591944167889,0.051130012128362,49.186418324401,0.091980804999999
0.40619220088732,0.0511899595788,49.122180346223,0.092089619999999
0.40646464886126,0.051249903089064,49.058088738327,0.092198444999999
0.40673678623077,0.051309842656897,48.994143014188,0.092307279999999
0.40700861362394,0.05136977828005,48.930342689429,0.092416124999999
0.4072801316669,0.051429709956284,48.866687281822,0.092524979999999
0.40755134098386,0.05148963768337,48.803176311267,0.092633844999999
0.40782224219706,0.05154956145909,48.739809299784,0.092742719999999
0.40809283592682,0.051609481281233,48.676585771499,0.092851604999999
0.40836312279154,0.051669397147599,48.613505252631,0.092960499999999
0.40863310340771,0.051729309055998,48.550567271488,0.093069404999999
0.40890277838991,0.051789217004249,48.487771358441,0.093178319999999
0.40917214835083,0.05184912099018,48.425117045932,0.093287244999999
0.40944121390126,0.051909021011629,48.362603868448,0.093396179999999
0.40970997565012,0.051968917066443,48.300231362512,0.093505124999999
0.40997843420444,0.052028809152479,48.237999066674,0.093614079999999
0.4102465901694,0.052088697267603,48.175906521503,0.093723044999999
0.41051444414834,0.052148581409689,48.113953269569,0.093832019999999
0.41078199674271,0.052208461576622,48.052138855437,0.093941004999999
0.41104924855214,0.052268337766295,47.990462825658,0.094049999999999
0.41131620017444,0.052328209976612,47.928924728747,0.094159004999999
0.41158285220558,0.052388078205483,47.867524115188,0.094268019999999
0.41184920523971,0.052447942450829,47.806260537408,0.094377044999999
0.41211525986917,0.052507802710581,47.745133549781,0.094486079999999
0.41238101668451,0.052567658982676,47.684142708605,0.094595124999999
0.41264647627447,0.052627511265063,47.623287572099,0.094704179999999
0.41291163922602,0.052687359555698,47.562567700387,0.094813244999999
0.41317650612434,0.052747203852547,47.501982655497,0.094922319999999
0.41344107755283,0.052807044153583,47.441532001337,0.095031404999999
0.41370535409314,0.05286688045679,47.381215303699,0.095140499999999
0.41396933632516,0.05292671276016,47.321032130238,0.095249604999999
0.41423302482703,0.052986541061693,47.260982050467,0.095358719999999
0.41449642017513,0.053046365359398,47.201064635746,0.095467844999999
0.41475952294413,0.053106185651293,47.141279459273,0.095576979999999
0.41502233370696,0.053166001935404,47.081626096072,0.095686124999999
0.41528485303484,0.053225814209767,47.022104122987,0.095795279999999
0.41554708149725,0.053285622472424,46.962713118664,0.095904444999999
0.41580901966201,0.053345426721428,46.903452663553,0.096013619999999
0.41607066809518,0.05340522695484,46.844322339889,0.096122804999999
0.41633202736118,0.053465023170727,46.785321731687,0.096231999999999
0.41659309802272,0.053524815367167,46.72645042473,0.096341204999999
0.41685388064083,0.053584603542246,46.667708006563,0.096450419999999
0.41711437577489,0.053644387694058,46.609094066475,0.096559644999999
0.41737458398259,0.053704167820704,46.550608195504,0.096668879999999
0.41763450581998,0.053763943920295,46.492249986416,0.096778124999999
0.41789414184145,0.05382371599095,46.4340190337,0.096887379999999
0.41815349259974,0.053883484030796,46.375914933558,0.096996644999999
0.41841255864598,0.053943248037967,46.317937283894,0.097105919999999
0.41867134052965,0.054003008010606,46.260085684314,0.097215204999999
0.4189298387986,0.054062763946864,46.202359736104,0.097324499999999
0.41918805399907,0.054122515844901,46.144759042227,0.097433804999999
0.4194459866757,0.054182263702883,46.087283207319,0.097543119999999
0.41970363737151,0.054242007518985,46.029931837673,0.097652444999999
0.41996100662793,0.054301747291392,45.972704541232,0.097761779999999
0.42021809498481,0.054361483018292,45.915600927584,0.097871124999999
0.4204749029804,0.054421214697886,45.85862060795,0.097980479999999
0.42073143115137,0.05448094232838,45.801763195172,0.098089844999999
0.42098768003284,0.054540665907987,45.745028303713,0.098199219999999
0.42124365015834,0.054600385434932,45.688415549641,0.098308604999999
0.42149934205986,0.054660100907442,45.631924550627,0.098417999999999
0.42175475626783,0.054719812323756,45.575554925931,0.098527404999999
0.42200989331114,0.054779519682119,45.519306296394,0.098636819999999
0.42226475371712,0.054839222980784,45.463178284436,0.098746244999999
0.42251933801159,0.054898922218012,45.407170514039,0.098855679999999
0.42277364671884,0.05495861739207,45.351282610747,0.098965124999999
0.42302768036163,0.055018308501235,45.295514201651,0.099074579999999
0.4232814394612,0.055077995543789,45.239864915387,0.099184044999999
0.4235349245373,0.055137678518024,45.18433438212,0.099293519999999
0.42378813610816,0.055197357422236,45.128922233549,0.099403004999999
0.42404107469052,0.055257032254733,45.073628102883,0.099512499999999
0.42429374079963,0.055316703013826,45.018451624849,0.099622004999999
0.42454613494926,0.055376369697836,44.963392435669,0.099731519999999
0.42479825765168,0.055436032305091,44.908450173065,0.099841044999999
0.42505010941772,0.055495690833925,44.853624476246,0.099950579999999
0.4253016907567,0.055555345282682,44.798914985895,0.100060125
0.42555300217653,0.055614995649709,44.744321344174,0.10016968
0.42580404418362,0.055674641933364,44.689843194703,0.100279245
0.42605481728295,0.055734284132011,44.635480182566,0.10038882
0.42630532197806,0.055793922244021,44.581231954286,0.100498405
0.42655555877105,0.055853556267772,44.527098157837,0.100608
0.42680552816257,0.055913186201649,44.473078442623,0.100717605
0.42705523065186,0.055972812044044,44.419172459475,0.10082722
0.42730466673673,0.056032433793357,44.365379860647,0.100936845
0.4275538369136,0.056092051447994,44.311700299803,0.10104648
0.42780274167743,0.056151665006368,44.25813343201,0.101156125
0.42805138152183,0.0562112744669,44.204678913739,0.10126578
0.42829975693897,0.056270879828017,44.151336402844,0.101375445
0.42854786841965,0.056330481088153,44.098105558572,0.10148512
0.42879571645326,0.056390078245749,44.044986041542,0.101594805
0.42904330152784,0.056449671299253,43.991977513741,0.1017045
0.42929062413003,0.056509260247119,43.939079638525,0.101814205
0.42953768474509,0.056568845087809,43.886292080602,0.10192392
0.42978448385694,0.056628425819791,43.833614506029,0.102033645
0.43003102194811,0.05668800244154,43.781046582207,0.10214338
0.4302772994998,0.056747574951538,43.728587977871,0.102253125
0.43052331699185,0.056807143348273,43.676238363089,0.10236288
0.43076907490274,0.05686670763024,43.623997409246,0.102472645
0.43101457370964,0.05692626779594,43.571864789046,0.10258242
0.43125981388835,0.056985823843882,43.5198401765,0.102692205
0.43150479591337,0.05704537577258,43.467923246923,0.102802
0.43174952025786,0.057104923580557,43.416113676926,0.102911805
0.43199398739367,0.057164467266339,43.364411144408,0.10302162
0.43223819779132,0.057224006828461,43.312815328552,0.103131445
0.43248215192003,0.057283542265463,43.261325909816,0.10324128
0.43272585024773,0.057343073575894,43.209942569931,0.103351125
0.43296929324102,0.057402600758307,43.15866499189,0.10346098
0.43321248136524,0.057462123811262,43.107492859945,0.103570845
0.43345541508441,0.057521642733324,43.056425859596,0.10368072
0.43369809486128,0.057581157523068,43.005463677589,0.103790605
0.43394052115733,0.057640668179072,42.954606001913,0.1039005
0.43418269443274,0.057700174699922,42.903852521786,0.104010405
0.43442461514645,0.057759677084208,42.853202927651,0.10412032
0.43466628375612,0.05781917533053,42.802656911177,0.104230245
0.43490770071814,0.057878669437492,42.752214165243,0.10434018
0.43514886648766,0.057938159403702,42.701874383938,0.104450125
0.43538978151858,0.057997645227779,42.651637262552,0.10456008
0.43563044626355,0.058057126908345,42.601502497575,0.104670045
0.43587086117397,0.058116604444028,42.551469786686,0.10478002
0.43611102670002,0.058176077833464,42.501538828746,0.104890005
0.43635094329064,0.058235547075293,42.4517093238,0.105
