d,ep,stress_yy,total_strain_yy
0,0,0,0
0,0,6.8797190688834,0.00010000499999996
0,0,13.758876406685,0.00020001999999997
0,0,20.637472210044,0.00030004499999992
0,0,27.515506675558,0.00040007999999991
0,0,34.392979999647,0.00050012499999996
0,0,41.269892378663,0.00060017999999995
0,0,48.146244008907,0.00070024499999988
0,0,55.022035086568,0.00080031999999997
0,0,61.897265807699,0.00090040499999988
0,0,68.771936368286,0.0010004999999998
0,0,75.646046964208,0.0011006050000001
0,0,82.519597791284,0.00120072
0,0,89.392589045164,0.0013008450000001
0,0,96.265020921448,0.0014009800000001
0,0,103.13689361571,0.0015011250000001
0,0,110.00820732331,0.00160128
0,0,116.87896223956,0.001701445
0,0,123.74915855968,0.0018016200000001
0,0,130.61879647882,0.001901805
0,0,137.48787619199,0.0020019999999999
0,0,144.35639789413,0.002102205
0,0,151.22436178007,0.0022024199999999
0,0,158.09176804461,0.002302645
0,0,164.9586168823,0.00240288
0,0,171.82490848776,0.0025031249999999
0,0,178.69064305547,0.0026033799999999
0,0,185.55582077975,0.002703645
0,0,192.42044185489,0.00280392
0,0,199.28450647504,0.0029042049999999
0,0,206.14801483432,0.0030044999999999
0,0,213.01096712673,0.0031048050000001
0,0,219.8733635461,0.0032051200000001
0,0,226.7352042863,0.0033054450000001
0,0,233.59648954101,0.00340578
0,0,240.45721950385,0.003506125
0,0,247.3173943683,0.0036064800000001
0,0,254.17701432781,0.0037068450000001
0,0,261.03607957571,0.00380722
0,0,267.89459030523,0.003907605
0,0,274.75254670952,0.004008
0,0,281.60994898159,0.004108405
0,0,288.46679731447,0.00420882
0,0,295.32309190096,0.004309245
0,0,302.17883293384,0.00440968
0,0,309.03402060575,0.0045101249999999
0,0,315.88865510935,0.0046105799999999
0,3.1362790300889e-05,319.51666031667,0.004711045
0,9.7549931077492e-05,319.56205353714,0.00481152
0,0.00016373052342964,319.60744224617,0.0049120049999999
0,0.00022990456865699,319.65282644462,0.0050124999999999
0,0.00029607206805886,319.69820613339,0.0051130050000001
0,0.00036223302293344,319.74358131341,0.0052135200000001
0,0.0004283874345793,319.78895198557,0.0053140450000001
0,0.0004945353042943,319.83431815073,0.0054145800000001
0,0.00056067663337608,319.8796798098,0.0055151250000001
0,0.00062681142312189,319.92503696369,0.00561568
0,0.00069293967482823,319.97038961329,0.005716245
0,0.00075906138979166,320.01573775949,0.0058168200000001
0,0.00082517656930806,320.0610814032,0.005917405
0,0.00089128521467318,320.10642054529,0.006018
0,0.00095738732718205,320.15175518668,0.0061186049999999
0,0.0010234829081297,320.19708532824,0.00621922
0,0.0010895719588104,320.24241097089,0.0063198449999999
0,0.0011556544805185,320.28773211551,0.0064204799999999
0,0.0012217304745473,320.33304876299,0.0065211249999999
0,0.0012877999421905,320.37836091422,0.0066217799999999
0,0.0013538628847407,320.42366857009,0.006722445
0,0.0014199193034906,320.46897173151,0.00682312
0,0.0014859691997321,320.51427039937,0.0069238049999999
0,0.0015520125747572,320.55956457454,0.0070244999999999
0,0.0016180494298573,320.60485425795,0.0071252049999999
0,0.0016840797663234,320.65013945046,0.0072259200000001
0,0.0017501035854459,320.69542015295,0.0073266450000001
0,0.0018161208885151,320.74069636634,0.0074273800000001
0,0.001882131676821,320.78596809151,0.0075281250000001
0,0.001948135951653,320.83123532935,0.0076288800000001
0,0.0020141337142998,320.87649808076,0.0077296450000001
0,0.0020801249660506,320.92175634661,0.00783042
0,0.0021461097081934,320.96701012781,0.007931205
0,0.0022120879420163,321.01225942525,0.008032
0,0.0022780596688069,321.05750423979,0.008132805
0,0.0023440248898522,321.10274457233,0.0082336199999999
0,0.0024099836064389,321.14798042379,0.008334445
0,0.0024759358198536,321.19321179503,0.0084352799999999
0,0.0025418815313822,321.23843868692,0.008536125
0,0.0026078207423103,321.28366110039,0.0086369799999999
0,0.0026737534539233,321.3288790363,0.008737845
0,0.002739679667506,321.37409249554,0.00883872
0,0.0028055993843428,321.41930147903,0.0089396049999999
0,0.0028715126057179,321.46450598759,0.0090404999999999
0,0.0029374193329151,321.50970602216,0.0091414049999999
0,0.0030033195672174,321.55490158363,0.0092423199999999
0,0.0030692133099083,321.60009267286,0.0093432450000001
0,0.0031351005622699,321.64527929071,0.00944418
0,0.0032009813255847,321.69046143813,0.009545125
0,0.0032668556011343,321.73563911595,0.00964608
0,0.0033327233902003,321.78081232509,0.009747045
0,0.0033985846940637,321.82598106642,0.0098480200000001
0,0.0034644395140052,321.87114534082,0.0099490050000001
0,0.0035302878513052,321.91630514919,0.01005
0,0.0035961297072435,321.96146049241,0.010151005
0,0.0036619650830998,322.00661137133,0.01025202
0,0.0037277939801529,322.05175778689,0.010353045
0,0.003793616399682,322.09689973993,0.01045408
0,0.0038594323429652,322.14203723135,0.010555125
4.9922215803515e-05,0.0039252418112807,322.08314308218,0.01065618
0.00016397926214631,0.0039910448059062,321.89068855716,0.010757245
0.00033924656703922,0.0040568413281186,321.57101704707,0.01085832
0.00057285529521495,0.0041226313791954,321.13049705171,0.010959405
0.00086199794700004,0.0041884149604126,320.57548568172,0.0110605
0.001203933192011,0.0042541920730465,319.91229564807,0.011161605
0.0015959899734724,0.0043199627183729,319.14716571892,0.01126272
0.002035570921865,0.0043857268976672,318.28623457945,0.011363845
0.0025201551194522,0.0044514846122045,317.33551798991,0.01146498
0.0030473002591854,0.0045172358632592,316.30088910524,0.011566125
0.0036146442423419,0.0045829806521056,315.18806179567,0.01166728
0.0042199062594535,0.0046487189800175,314.00257678803,0.011768445
0.0048608873992454,0.0047144508482686,312.74979043527,0.01186962
0.0055354708288684,0.004780176258132,311.43486591383,0.011970805
0.0062416215881765,0.0048458952108802,310.06276664414,0.012072
0.0069773860388754,0.0049116077077858,308.63825173076,0.012173205
0.007740891007757,0.0049773137501207,307.16587322078,0.01227442
0.0085303426611061,0.0050430133391565,305.64997498596,0.012375645
0.0093440251453842,0.0051087064761645,304.09469304097,0.01247688
0.01018029902698,0.0051743931624156,302.50395711976,0.012578125
0.01103759956147,0.0052400733991801,300.88149334295,0.01267938
0.011914434820679,0.0053057471877282,299.23082781908,0.012780645
0.012809383703441,0.0053714145293298,297.55529103593,0.01288192
0.013721093853757,0.005437075425254,295.85802290804,0.012983205
0.014648279507941,0.00550272987677,294.1419783596,0.0130845
0.015589719290104,0.0055683778851461,292.40993333286,0.013185805
0.016544253973532,0.0056340194516508,290.66449112329,0.01328712
0.017510784223501,0.0056996545775518,288.9080889535,0.013388445
0.018488268335333,0.0057652832641168,287.14300470754,0.01348978
0.019475719979831,0.0058309055126128,285.37136375778,0.013591125
0.020472205966704,0.0058965213243065,283.5951458236,0.01369248
0.021476844035264,0.005962130700464,281.81619181093,0.013793845
0.022488800680103,0.0060277336423516,280.03621058802,0.01389522
0.023507289018529,0.0060933301512349,278.25678566025,0.013996605
0.024531566705413,0.0061589202283791,276.47938171224,0.014098
0.025560933899918,0.0062245038750491,274.70535099192,0.014199405
0.026594731287912,0.0062900810925091,272.93593951563,0.01430082
0.02763233816296,0.0063556518820236,271.17229307735,0.014402245
0.028673170568101,0.0064212162448563,269.41546305024,0.01450368
0.029716679499985,0.0064867741822704,267.66641197079,0.014605125
0.030762349176353,0.0065523256955291,265.92601889951,0.01470658
0.031809695367447,0.0066178707858948,264.19508455483,0.014808045
0.032858263791453,0.0066834094546298,262.47433621838,0.01490952
0.033907628573559,0.0067489417029961,260.76443241263,0.015011005
0.034957390768282,0.0068144675322552,259.0659673526,0.0151125
0.036007176943997,0.0068799869436682,257.37947517539,0.015214005
0.037056637828675,0.0069454999384958,255.70543395178,0.01531552
0.038105447015573,0.0070110065179984,254.04426948549,0.015417045
0.039153299727353,0.007076506683436,252.39635890624,0.01551858
0.040199911637177,0.0071420004360682,250.76203406316,0.015620125
0.041245017745091,0.0072074877771546,249.14158472575,0.01572168
0.042288371307863,0.0072729687079538,247.53526159975,0.015823245
0.043329742820671,0.0073384432297245,245.94327916541,0.01592482
0.044368919048708,0.0074039113437248,244.3658183459,0.016026405
0.045405702106818,0.0074693730512124,242.80302901359,0.016128
0.046439908585467,0.0075348283534448,241.25503234168,0.016229605
0.047471368721121,0.0076002772516792,239.72192300881,0.01633122
0.048499925609091,0.0076657197471719,238.20377126431,0.016432845
0.049525434457337,0.0077311558411797,236.70062486085,0.01653448
0.050547761879125,0.0077965855349581,235.21251086201,0.016636125
0.051566785223079,0.0078620088297629,233.73943733134,0.01673778
0.052582391938773,0.0079274257268493,232.28139490953,0.016839445
0.053594478976256,0.0079928362274721,230.83835828623,0.01694112
0.05460295221799,0.0080582403328857,229.41028757231,0.017042805
0.055607725941485,0.0081236380443444,227.99712957867,0.0171445
0.056608722311353,0.0081890293631017,226.59881900705,0.017246205
0.057605870899163,0.0082544142904109,225.2152795581,0.01734792
0.058599108229824,0.0083197928275252,223.8464249619,0.017449645
0.059588377353044,0.0083851649756972,222.49215993568,0.01755138
0.060573627438803,0.0084505307361791,221.15238107316,0.017653125
0.06155481339531,0.0085158901102228,219.82697767014,0.01775488
0.062531895508529,0.0085812430990795,218.51583249006,0.017856645
0.063504839102049,0.0086465897040008,217.21882247364,0.01795842
0.064473614216254,0.0087119299262373,215.93581939604,0.018060205
0.065438195305705,0.0087772637670393,214.66669047526,0.018162
0.066398560953829,0.008842591227657,213.41129893465,0.018263805
0.06735469360403,0.0089079123093401,212.16950452277,0.01836562
0.068306579306197,0.0089732270133375,210.9411639935,0.018467445
0.069254207477885,0.0090385353408987,209.72613154893,0.01856928
0.070197570679337,0.009103837293272,208.52425924767,0.018671125
0.071136664401621,0.0091691328717056,207.33539738087,0.01877298
0.072071486867062,0.0092344220774473,206.15939481815,0.018874845
0.073002038841401,0.0092997049117447,204.99609932564,0.01897672
0.073928323457019,0.009364981375845,203.84535785791,0.019078605
0.074850346046495,0.0094302514709947,202.70701682575,0.0191805
0.075768113986077,0.0094955151984402,201.5809223413,0.019282405
0.0766816365484,0.0095607725594275,200.46692044246,0.01938432
0.077590924763997,0.0096260235552023,199.36485729767,0.019486245
0.078495991291075,0.0096912681870098,198.27457939268,0.01958818
0.079396850293071,0.0097565064560951,197.19593370066,0.019690125
0.080293517323605,0.0098217383637026,196.12876783662,0.01979208
0.081186009218359,0.0098869639110764,195.07293019758,0.019894045
0.082074343993507,0.0099521830994604,194.02827008914,0.01999602
0.082958540750346,0.010017395930098,192.99463783991,0.020098005
0.083838619585689,0.010082602404232,191.97188490434,0.0202
0.084714601507839,0.010147802523106,190.95986395496,0.020302005
0.085586508357649,0.010212996287961,189.95842896478,0.02040402
0.0864543627345,0.010278183700041,188.96743528071,0.020506045
0.08731818792691,0.010343364760585,187.98673968843,0.02060808
0.088178007847389,0.010408539470837,187.01620046968,0.020710125
0.089033846971465,0.010473707832035,186.05567745231,0.02081218
0.089885730280507,0.010538869845422,185.10503205368,0.020914245
0.090733683208132,0.010604025512238,184.16412731821,0.02101632
0.091577731590132,0.010669174833721,183.23282794902,0.021118405
0.092417901617501,0.010734317811111,182.31100033473,0.0212205
0.093254219792555,0.010799454445649,181.39851257128,0.021322605
0.094086712887874,0.010864584738571,180.49523447954,0.02142472
0.094915407907926,0.010929708691117,179.60103761896,0.021526845
0.095740332053221,0.010994826304525,178.71579529742,0.02162898
0.096561512686862,0.011059937580031,177.83938257783,0.021731125
0.097378977303266,0.011125042518875,176.97167628172,0.02183328
0.098192753499038,0.011190141122291,176.11255498998,0.021935445
0.099002868945869,0.011255233391518,175.26189904092,0.02203762
0.09980935136519,0.01132031932779,174.41959052631,0.022139805
0.10061222850464,0.011385398932344,173.58551328504,0.022242
0.10141152811619,0.011450472206416,172.75955289502,0.022344205
0.10220727793581,0.01151553915124,171.94159666327,0.02244642
0.10299950566454,0.011580599768051,171.13153361456,0.022548645
0.10378823895103,0.011645654058084,170.3292544785,0.02265088
0.10457350537523,0.011710702022572,169.53465167551,0.022753125
0.10535533243345,0.01177574366275,168.74761930154,0.02285538
0.10613374752443,0.011840778979849,167.96805311187,0.022957645
0.10690877793653,0.011905807975104,167.19585050403,0.02305992
0.1076804508359,0.011970830649747,166.43091049987,0.023162205
0.10844879325566,0.01203584700501,165.67313372697,0.0232645
0.10921383208581,0.012100857042125,164.92242239944,0.023366805
0.10997559406417,0.012165860762323,164.17868029829,0.02346912
0.11073410576793,0.012230858166836,163.44181275121,0.023571445
0.11148939360601,0.012295849256894,162.7117266121,0.02367378
0.11224148381213,0.012360834033727,161.9883302402,0.023776125
0.1129904024384,0.012425812498566,161.27153347909,0.02387848
0.11373617534969,0.012490784652641,160.56124763534,0.023980845
0.1144788282184,0.01255575049718,159.85738545717,0.02408322
0.11521838651981,0.012620710033413,159.15986111294,0.024185605
0.11595487552803,0.012685663262568,158.46859016948,0.024288
0.11668832031221,0.012750610185873,157.78348957063,0.024390405
0.11741874573338,0.012815550804557,157.10447761553,0.02449282
0.11814617644158,0.012880485119846,156.43147393718,0.024595245
0.11887063687338,0.012945413132969,155.76439948094,0.02469768
0.11959215124976,0.013010334845151,155.10317648316,0.024800125
0.1203107435744,0.01307525025762,154.4477284499,0.02490258
0.12102643763212,0.013140159371601,153.7979801359,0.025005045
0.12173925698776,0.01320506218832,153.15385752358,0.02510752
0.12244922498522,0.013269958709002,152.51528780232,0.025210005
0.12315636474681,0.013334848934872,151.88219934781,0.0253125
0.12386069917282,0.013399732867156,151.25452170179,0.025415005
0.12456225094129,0.013464610507077,150.63218555181,0.02551752
0.12526104250797,0.01352948185586,150.01512271136,0.025620045
0.12595709610654,0.013594346914727,149.40326610018,0.02572258
0.12665043374888,0.013659205684902,148.79654972487,0.025825125
0.12734107722562,0.013724058167608,148.19490865962,0.02592768
0.12802904810677,0.013788904364068,147.59827902735,0.026030245
0.12871436774249,0.013853744275503,147.00659798107,0.02613282
0.129397057264,0.013918577903136,146.41980368545,0.026235405
0.13007713758466,0.013983405248188,145.83783529872,0.026338
0.13075462940097,0.014048226311879,145.26063295488,0.026440605
0.13142955319397,0.014113041095431,144.68813774602,0.02654322
0.13210192923043,0.014177849600064,144.12029170515,0.026645845
0.13277177756433,0.014242651826998,143.55703778912,0.02674848
0.13343911803827,0.014307447777453,142.99831986192,0.026851125
0.13410397028508,0.014372237452648,142.44408267823,0.02695378
0.13476635372941,0.014437020853801,141.89427186723,0.027056445
0.13542628758937,0.014501797982132,141.34883391671,0.02715912
0.13608379087826,0.014566568838859,140.80771615747,0.027261805
0.13673888240635,0.0146313334252,140.27086674792,0.0273645
0.13739158078267,0.014696091742371,139.73823465907,0.027467205
0.13804190441684,0.014760843791591,139.20976965968,0.02756992
0.13868987152094,0.014825589574076,138.68542230172,0.027672645
0.13933550011141,0.014890329091043,138.16514390614,0.02777538
0.13997880801098,0.014955062343707,137.64888654882,0.027878125
0.14061981285061,0.015019789333285,137.13660304681,0.02798088
0.14125853207143,0.015084510060991,136.6282469449,0.028083645
0.14189498292674,0.015149224528042,136.12377250225,0.02818642
0.14252918248399,0.015213932735651,135.62313467956,0.028289205
0.14316114762673,0.015278634685033,135.12628912617,0.028392
0.14379089505667,0.015343330377402,134.63319216767,0.028494805
0.14441844129569,0.015408019813971,134.14380079353,0.02859762
0.14504380268778,0.015472702995954,133.65807264518,0.028700445
0.14566699540108,0.015537379924564,133.1759660041,0.02880328
0.14628803542992,0.015602050601013,132.69743978033,0.028906125
0.14690693859675,0.015666715026513,132.22245350108,0.02900898
0.1475237205542,0.015731373202276,131.75096729965,0.029111845
0.14813839678705,0.015796025129515,131.28294190443,0.02921472
0.14875098261417,0.01586067080944,130.8183386283,0.029317605
0.14936149319056,0.015925310243261,130.3571193581,0.0294205
0.14996994350925,0.01598994343219,129.89924654432,0.029523405
0.15057634840331,0.016054570377436,129.44468319109,0.02962632
0.15118072254773,0.016119191080209,128.99339284624,0.029729245
0.15178308046138,0.016183805541718,128.54533959162,0.02983218
0.15238343650893,0.016248413763173,128.10048803365,0.029935125
0.15298180490271,0.016313015745783,127.65880329395,0.03003808
0.15357819970461,0.016377611490754,127.22025100025,0.030141045
0.15417263482798,0.016442200999297,126.78479727744,0.03024402
0.15476512403941,0.016506784272617,126.3524087388,0.030347005
0.1553556809606,0.016571361311923,125.92305247743,0.03045
0.1559443190702,0.016635932118422,125.49669605776,0.030553005
0.15653105170554,0.016700496693319,125.0733075074,0.03065602
0.15711589206447,0.016765055037822,124.6528553089,0.030759045
0.15769885320712,0.016829607153136,124.23530839198,0.03086208
0.15827994805759,0.016894153040466,123.8206361256,0.030965125
0.15885918940571,0.016958692701018,123.40880831047,0.03106818
0.15943658990873,0.017023226135997,122.99979517147,0.031171245
0.16001216209303,0.017087753346607,122.5935673504,0.03127432
0.16058591835576,0.017152274334052,122.19009589874,0.031377405
0.16115787096647,0.017216789099537,121.78935227065,0.0314805
0.1617280320688,0.017281297644264,121.39130831607,0.031583605
0.16229641368201,0.017345799969436,120.99593627393,0.03168672
0.16286302770262,0.017410296076257,120.60320876552,0.031789845
0.16342788590596,0.017474785965928,120.21309878802,0.03189298
0.16399099994771,0.017539269639652,119.82557970808,0.031996125
0.16455238136544,0.01760374709863,119.44062525561,0.03209928
0.16511204158012,0.017668218344065,119.05820951763,0.032202445
0.1656699918976,0.017732683377156,118.67830693227,0.03230562
0.16622624351008,0.017797142199104,118.30089228287,0.032408805
0.1667808074976,0.01786159481111,117.9259406922,0.032512
0.1673336948294,0.017926041214374,117.55342761682,0.032615205
0.16788491636537,0.017990481410094,117.18332884153,0.03271842
0.16843448285748,0.018054915399472,116.81562047385,0.032821645
0.1689824049511,0.018119343183705,116.45027893879,0.03292488
0.16952869318636,0.018183764763991,116.08728097353,0.033028125
0.17007335799954,0.01824818014153,115.7266036223,0.03313138
0.17061640972433,0.018312589317519,115.36822423136,0.033234645
0.17115785859316,0.018376992293155,115.01212044406,0.03333792
0.17169771473849,0.018441389069636,114.65827019596,0.033441205
0.17223598819407,0.018505779648158,114.3066517101,0.0335445
0.17277268889616,0.018570164029918,113.95724349234,0.033647805
0.1733078266848,0.018634542216112,113.61002432678,0.03375112
0.17384141130502,0.018698914207936,113.26497327126,0.033854445
0.174373452408,0.018763280006586,112.92206965297,0.03395778
0.17490395955231,0.018827639613256,112.58129306414,0.034061125
0.17543294220499,0.018891993029141,112.24262335778,0.03416448
0.1759604097428,0.018956340255435,111.90604064352,0.034267845
0.17648637145325,0.019020681293333,111.57152528356,0.03437122
0.17701083653577,0.019085016144028,111.23905788865,0.034474605
0.17753381410281,0.019149344808713,110.90861931415,0.034578
0.1780553131809,0.019213667288583,110.58019065619,0.034681405
0.17857534271172,0.019277983584828,110.25375324788,0.03478482
0.17909391155318,0.019342293698642,109.92928865559,0.034888245
0.17961102848041,0.019406597631217,109.60677867535,0.03499168
0.18012670218682,0.019470895383744,109.28620532919,0.035095125
0.1806409412851,0.019535186957414,108.96755086172,0.03519858
0.18115375430818,0.019599472353418,108.65079773662,0.035302045
0.18166514971027,0.019663751572948,108.33592863329,0.03540552
0.18217513586778,0.019728024617193,108.02292644349,0.035509005
0.18268372108026,0.019792291487343,107.71177426816,0.0356125
0.18319091357139,0.019856552184587,107.40245541412,0.035716005
0.18369672148984,0.019920806710116,107.09495339101,0.03581952
0.18420115291023,0.019985055065117,106.78925190814,0.035923045
0.184704215834,0.02004929725078,106.48533487152,0.03602658
0.18520591819031,0.020113533268292,106.18318638083,0.036130125
0.1857062678369,0.020177763118841,105.88279072654,0.03623368
0.18620527256094,0.020241986803615,105.58413238704,0.036337245
0.18670294007991,0.020306204323801,105.28719602577,0.03644082
0.1871992780424,0.020370415680586,104.99196648852,0.036544405
0.18769429402895,0.020434620875157,104.69842880068,0.036648
0.18818799555285,0.020498819908698,104.40656816458,0.036751605
0.18868039006096,0.020563012782397,104.11636995684,0.03685522
0.18917148493446,0.020627199497438,103.82781972583,0.036958845
0.18966128748969,0.020691380055007,103.54090318914,0.03706248
0.19014980497883,0.020755554456289,103.25560623105,0.037166125
0.19063704459071,0.020819722702467,102.97191490015,0.03726978
0.19112301345158,0.020883884794727,102.68981540688,0.037373445
0.19160771862574,0.02094804073425,102.40929412122,0.03747712
0.19209116711639,0.021012190522223,102.13033757035,0.037580805
0.19257336586624,0.021076334159826,101.8529324364,0.0376845
0.19305432175828,0.021140471648243,101.57706555414,0.037788205
0.19353404161643,0.021204602988656,101.30272390888,0.03789192
0.19401253220623,0.021268728182247,101.02989463425,0.037995645
0.19448980023554,0.021332847230198,100.75856501008,0.03809938
0.19496585235518,0.021396960133691,100.48872246033,0.038203125
0.19544069515957,0.021461066893905,100.22035455104,0.03830688
0.19591433518742,0.021525167512023,99.953448988294,0.038410645
0.1963867789223,0.021589261989223,99.687993616265,0.03851442
0.19685803279335,0.021653350326687,99.423976415229,0.038618205
0.19732810317583,0.021717432525593,99.161385499695,0.038722
0.19779699639174,0.021781508587122,98.900209116492,0.038825805
0.19826471871045,0.021845578512451,98.64043564292,0.03892962
0.19873127634929,0.021909642302761,98.38205358493,0.039033445
0.19919667547408,0.021973699959228,98.125051575362,0.03913728
0.1996609221998,0.022037751483031,97.86941837214,0.039241125
0.20012402259105,0.022101796875347,97.615142856568,0.03934498
0.20058598266271,0.022165836137354,97.362214031636,0.039448845
0.20104680838042,0.022229869270229,97.110621020308,0.03955272
0.20150650566116,0.022293896275148,96.860353063928,0.039656605
0.20196508037379,0.022357917153288,96.61139952057,0.0397605
0.20242253833958,0.022421931905823,96.363749863433,0.039864405
0.20287888533268,0.022485940533931,96.117393679309,0.03996832
0.20333412708074,0.022549943038786,95.872320667017,0.040072245
0.20378826926531,0.022613939421562,95.628520635894,0.04017618
0.20424131752242,0.022677929683436,95.38598350431,0.040280125
0.20469327744303,0.022741913825579,95.144699298204,0.04038408
0.20514415457355,0.022805891849168,94.90465814961,0.040488045
0.20559395441629,0.022869863755375,94.665850295286,0.04059202
0.20604268242995,0.022933829545373,94.428266075279,0.040696005
0.20649034403012,0.022997789220335,94.191895931565,0.0408
0.20693694458967,0.023061742781434,93.956730406692,0.040904005
0.20738248943928,0.023125690229842,93.722760142461,0.04100802
0.20782698386785,0.023189631566731,93.489975878592,0.041112045
0.20827043312297,0.023253566793271,93.258368451456,0.04121608
0.20871284241131,0.023317495910636,93.027928792805,0.041320125
0.20915421689912,0.023381418919994,92.798647928515,0.04142418
0.2095945617126,0.023445335822517,92.570516977348,0.041528245
0.21003388193835,0.023509246619375,92.343527149779,0.04163232
0.21047218262378,0.023573151311738,92.117669746753,0.041736405
0.21090946877752,0.023637049900775,91.892936158566,0.0418405
0.21134574536983,0.023700942387655,91.669317863672,0.041944605
0.21178101733298,0.023764828773548,91.446806427558,0.04204872
0.21221528956166,0.023828709059621,91.225393501636,0.042152845
0.21264856691339,0.023892583247042,91.005070822134,0.04225698
0.21308085420885,0.023956451336981,90.785830209008,0.042361125
0.21351215623232,0.024020313330603,90.567663564886,0.04246528
0.21394247773201,0.024084169229077,90.350562874002,0.042569445
0.21437182342044,0.024148019033568,90.134520201174,0.04267362
0.21480019797481,0.024211862745244,89.919527690783,0.042777805
0.21522760603738,0.02427570036527,89.705577565754,0.042882
0.21565405221578,0.024339531894813,89.492662126603,0.042986205
0.2160795410834,0.024403357335038,89.280773750419,0.04309042
0.21650407717972,0.024467176687109,89.069904889932,0.043194645
0.21692766501064,0.024530989952192,88.860048072576,0.04329888
0.21735030904886,0.024594797131452,88.651195899527,0.043403125
0.21777201373415,0.024658598226051,88.443341044828,0.04350738
0.21819278347375,0.024722393237155,88.236476254452,0.043611645
0.21861262264262,0.024786182165926,88.03059434543,0.04371592
0.21903153558384,0.024849965013527,87.825688204973,0.043820205
0.21944952660886,0.024913741781122,87.621750789606,0.0439245
0.21986659999785,0.024977512469873,87.418775124324,0.044028805
0.22028275999999,0.025041277080942,87.216754301747,0.04413312
0.2206980108338,0.025105035615491,87.015681481301,0.044237445
0.22111235668742,0.02516878807468,86.8155498884,0.04434178
0.22152580171889,0.025232534459673,86.616352813657,0.044446125
0.2219383500565,0.025296274771628,86.418083612073,0.04455048
0.22235000579902,0.025360009011706,86.220735702281,0.044654845
0.22276077301605,0.025423737181069,86.02430256577,0.04475922
0.22317065574823,0.025487459280874,85.828777746126,0.044863605
0.22357965800757,0.025551175312283,85.634154848294,0.044968
0.22398778377771,0.025614885276453,85.440427537845,0.045072405
0.22439503701422,0.025678589174544,85.247589540239,0.04517682
0.22480142164483,0.025742287007715,85.055634640141,0.045281245000001
0.22520694156969,0.025805978777122,84.864556680684,0.04538568
0.2256116006617,0.025869664483925,84.67434956281,0.045490125
0.22601540276668,0.025933344129281,84.485007244548,0.04559458
0.22641835170371,0.025997017714346,84.296523740395,0.045699045
0.22682045126533,0.026060685240277,84.108893120595,0.04580352
0.22722170521782,0.026124346708232,83.922109510526,0.045908005
0.2276221173014,0.026188002119365,83.736167090037,0.0460125
0.22802169123056,0.026251651474834,83.551060092818,0.046117005
0.22842043069422,0.026315294775793,83.366782805771,0.04622152
0.228818339356,0.026378932023397,83.183329568389,0.046326045
0.22921542085447,0.026442563218801,83.000694772165,0.04643058
0.22961167880337,0.026506188363161,82.818872859963,0.046535125
0.23000711679183,0.026569807457629,82.637858325451,0.04663968
0.23040173838463,0.02663342050336,82.457645712496,0.046744245
0.23079554712237,0.026697027501507,82.278229614604,0.04684882
0.23118854652177,0.026760628453223,82.099604674349,0.046953405000001
0.23158074007581,0.026824223359662,81.921765582803,0.047058
0.23197213125401,0.026887812221975,81.74470707899,0.047162605
0.2323627235026,0.026951395041315,81.56842394935,0.04726722
0.23275252024478,0.027014971818833,81.392911027185,0.047371845
0.23314152485209,0.027078542555682,81.218163205825,0.04747648
0.23352974073232,0.027142107253012,81.044175396372,0.047581125
0.23391717124065,0.027205665911975,80.87094256962,0.04768578
0.23430381971007,0.027269218533719,80.69845974115,0.047790445
0.23468968945153,0.027332765119397,80.526721970836,0.04789512
0.23507478375414,0.027396305670158,80.355724362345,0.047999805
0.23545910588539,0.02745984018715,80.18546206265,0.0481045
0.23584265909131,0.027523368671525,80.015930261551,0.048209205
0.2362254465967,0.027586891124429,79.847124191192,0.04831392
0.23660747160528,0.027650407547013,79.679039125603,0.048418645
0.23698873729992,0.027713917940423,79.51167038022,0.04852338
0.23736924684277,0.027777422305808,79.345013311451,0.048628125
0.23774900337551,0.027840920644316,79.179063316207,0.04873288
0.23812801001947,0.027904412957094,79.013815831467,0.048837645
0.23850626987584,0.027967899245288,78.84926633384,0.04894242
0.23888378602586,0.028031379510046,78.685410339118,0.049047205
0.23926056153095,0.028094853752513,78.522243401872,0.049152000000001
0.23963659943292,0.028158321973835,78.359761115009,0.049256805
0.24001190275415,0.028221784175158,78.197959109374,0.04936162
0.2403864744977,0.028285240357628,78.036833053326,0.049466445000001
0.24076031764755,0.028348690522389,77.876378652326,0.04957128
0.24113343516872,0.028412134670585,77.716591648573,0.049676125
0.24150583000746,0.028475572803362,77.557467820557,0.04978098
0.24187750509138,0.028539004921863,77.399002982722,0.049885845
0.24224846332965,0.028602431027231,77.241192985034,0.04999072
0.24261870761311,0.02866585112061,77.084033712639,0.050095605
0.24298824081449,0.028729265203143,76.927521085464,0.0502005
0.24335706578848,0.028792673275973,76.771651057868,0.050305405
0.24372518537199,0.028856075340242,76.616419618246,0.05041032
0.2440926023842,0.028919471397091,76.4618227887,0.050515245
0.24445931962677,0.028982861447664,76.307856624668,0.05062018
0.24482533988398,0.0290462454931,76.154517214578,0.050725125000001
0.24519066592286,0.029109623534541,76.001800679482,0.050830080000001
0.24555530049334,0.029172995573128,75.849703172751,0.050935045000001
0.24591924632841,0.02923636161,75.698220879699,0.05104002
0.24628250614426,0.029299721646299,75.547350017271,0.051145005
0.24664508264038,0.029363075683164,75.397086833708,0.05125
0.24700697849976,0.029426423721733,75.247427608222,0.051355005
0.24736819638899,0.029489765763147,75.098368650661,0.05146002
0.24772873895839,0.029553101808544,74.949906301228,0.051565045
0.24808860884218,0.029616431859062,74.80203693011,0.05167008
0.24844780865858,0.02967975591584,74.654756937237,0.051775125
0.24880634100996,0.029743073980015,74.508062751915,0.05188018
0.24916420848297,0.029806386052725,74.361950832558,0.051985245
0.24952141364866,0.029869692135107,74.216417666382,0.05209032
0.24987795906261,0.029932992228297,74.071459769113,0.052195405
0.25023384726507,0.029996286333432,73.92707368469,0.0523005
0.25058908078106,0.030059574451649,73.783255984968,0.052405605
0.25094366212051,0.030122856584083,73.640003269479,0.05251072
0.2512975937784,0.03018613273187,73.497312165083,0.052615845
0.25165087823485,0.030249402896144,73.355179325755,0.052720980000001
0.25200351795525,0.030312667078041,73.213601432259,0.052826125000001
0.25235551539039,0.030375925278695,73.072575191931,0.052931280000001
0.25270687297657,0.030439177499241,72.932097338364,0.053036445000001
0.2530575931357,0.030502423740811,72.792164631173,0.053141620000001
0.25340767827545,0.030565664004541,72.652773855719,0.053246805000001
0.25375713078935,0.030628898291563,72.513921822858,0.053352
0.25410595305688,0.030692126603009,72.375605368697,0.053457205
0.25445414744362,0.030755348940014,72.237821354326,0.05356242
0.25480171630132,0.030818565303708,72.100566665574,0.053667645
0.25514866196806,0.030881775695224,71.96383821277,0.05377288
0.2554949867683,0.030944980115694,71.827632930498,0.053878125
0.25584069301305,0.031008178566248,71.691947777349,0.05398338
0.25618578299991,0.031071371048018,71.556779735707,0.054088645
0.25653025901322,0.031134557562135,71.422125811489,0.05419392
0.25687412332418,0.031197738109728,71.287983033925,0.054299205
0.25721737819089,0.031260912691928,71.154348455329,0.0544045
0.25756002585852,0.031324081309865,71.021219150884,0.054509805000001
0.25790206855934,0.031387243964667,70.888592218404,0.054615120000001
0.2582435085129,0.031450400657465,70.756464778121,0.054720445000001
0.25858434792607,0.031513551389386,70.624833972464,0.054825780000001
0.25892458899317,0.031576696161559,70.493696965837,0.054931125000001
0.25926423389603,0.031639834975112,70.363050944432,0.055036480000001
0.25960328480415,0.031702967831174,70.232893115988,0.055141845
0.25994174387471,0.031766094730871,70.103220709604,0.055247220000001
0.26027961325276,0.03182921567533,69.974030975528,0.055352605
0.26061689507123,0.031892330665679,69.845321184938,0.055458000000001
0.26095359145107,0.031955439703044,69.717088629778,0.055563405
0.26128970450132,0.032018542788551,69.589330622523,0.055668820000001
0.26162523631922,0.032081639923325,69.462044496005,0.055774245
0.2619601889903,0.032144731108494,69.335227603207,0.05587968
0.26229456458842,0.03220781634518,69.208877317075,0.055985125
0.26262836517595,0.032270895634511,69.082991030339,0.05609058
0.26296159280376,0.03233396897761,68.957566155313,0.056196045
0.26329424951137,0.0323970363756,68.83260012371,0.05630152
0.26362633732702,0.032460097829608,68.708090386469,0.056407005
0.26395785826774,0.032523153340755,68.584034413562,0.056512500000001
0.26428881433946,0.032586202910166,68.460429693833,0.056618005000001
0.26461920753707,0.032649246538963,68.337273734795,0.056723520000001
0.2649490398445,0.032712284228268,68.214564062482,0.056829045000001
0.26527831323484,0.032775315979205,68.092298221261,0.056934580000001
0.26560702967036,0.032838341792896,67.970473773661,0.057040125000001
0.26593519110267,0.032901361670461,67.849088300212,0.057145680000001
0.26626279947272,0.032964375613023,67.728139399263,0.057251245000001
0.2665898567109,0.033027383621702,67.607624686849,0.057356820000001
0.26691636473718,0.033090385697619,67.48754179648,0.057462405000001
0.26724232546108,0.033153381841895,67.367888379025,0.057568
0.26756774078185,0.03321637205565,67.248662102524,0.057673605
0.26789261258848,0.033279356340003,67.129860652042,0.05777922
0.26821694275979,0.033342334696074,67.011481729505,0.057884845
0.26854073316453,0.033405307124983,66.893523053556,0.05799048
0.26886398566139,0.033468273627847,66.775982359389,0.058096125
0.26918670209917,0.033531234205787,66.65885739862,0.05820178
0.26950888431677,0.033594188859919,66.542145939102,0.058307445000001
0.26983053414328,0.033657137591362,66.425845764813,0.058413120000001
0.27015165339809,0.033720080401233,66.309954675691,0.058518805000001
0.2704722438909,0.03378301729065,66.194470487495,0.058624500000001
0.27079230742185,0.033845948260729,66.079391031656,0.058730205000001
0.27111184578153,0.033908873312587,65.964714155141,0.058835920000001
0.27143086075111,0.033971792447341,65.850437720317,0.058941645000001
0.27174935410236,0.034034705666106,65.736559604803,0.059047380000001
0.27206732759772,0.034097612969998,65.62307770134,0.059153125000001
0.27238478299041,0.034160514360134,65.509989917652,0.059258880000001
0.27270172202445,0.034223409837626,65.397294176313,0.059364645000001
0.27301814643473,0.034286299403591,65.284988414619,0.059470420000001
0.27333405794711,0.034349183059142,65.173070584447,0.059576205
0.27364945827845,0.034412060805395,65.061538652134,0.059682000000001
0.27396434913669,0.034474932643462,64.95039059835,0.059787805
0.27427873222088,0.034537798574457,64.839624417959,0.059893620000001
0.2745926092213,0.034600658599493,64.729238119906,0.059999445000001
0.2749059818195,0.034663512719684,64.619229727094,0.060105280000001
0.27521885168832,0.034726360936141,64.509597276246,0.060211125000001
0.27553122049199,0.034789203249977,64.400338817798,0.060316980000001
0.27584308988622,0.034852039662304,64.29145241577,0.060422845000001
0.27615446151818,0.034914870174233,64.182936147653,0.060528720000001
0.27646533702662,0.034977694786876,64.07478810429,0.060634605000001
0.27677571804194,0.035040513501343,63.967006389755,0.060740500000001
0.27708560618616,0.035103326318745,63.85958912125,0.060846405000001
0.2773950030731,0.035166133240193,63.752534428966,0.060952320000001
0.27770391030833,0.035228934266797,63.645840456,0.061058245000001
0.2780123294893,0.035291729399666,63.539505358217,0.061164180000001
0.27832026220535,0.035354518639909,63.433527304164,0.061270125000001
0.27862771003781,0.035417301988636,63.327904474942,0.061376080000001
0.27893467455999,0.035480079446956,63.222635064102,0.061482045000001
0.2792411573373,0.035542851015977,63.11771727755,0.061588020000001
0.27954715992728,0.035605616696807,63.013149333417,0.061694005000001
0.27985268387965,0.035668376490553,62.908929461978,0.061800000000001
0.28015773073634,0.035731130398325,62.805055905531,0.061906005000001
0.2804623020316,0.035793878421227,62.701526918309,0.06201202
0.28076639929202,0.035856620560369,62.598340766361,0.062118045000001
0.28107002403655,0.035919356816855,62.495495727472,0.062224080000001
0.28137317777662,0.035982087191793,62.392990091043,0.062330125000001
0.28167586201614,0.036044811686288,62.290822158008,0.062436180000001
0.28197807825156,0.036107530301445,62.188990240724,0.062542245000001
0.28227982797193,0.036170243038372,62.087492662887,0.062648320000001
0.28258111265896,0.036232949898171,61.98632775943,0.062754405000001
0.28288193378703,0.036295650881948,61.885493876417,0.062860500000001
0.28318229282329,0.036358345990807,61.784989370971,0.062966605000001
0.28348219122766,0.036421035225853,61.68481261117,0.063072720000001
0.28378163045292,0.036483718588189,61.584961975951,0.063178845000001
0.28408061194472,0.036546396078919,61.485435855028,0.063284980000001
0.28437913714165,0.036609067699146,61.386232648798,0.063391125000001
0.2846772074753,0.036671733449972,61.287350768248,0.063497280000001
0.28497482437027,0.0367343933325,61.188788634877,0.063603445000001
0.28527198924424,0.036797047347832,61.090544680595,0.063709620000001
0.28556870350802,0.036859695497071,60.992617347647,0.063815805
0.28586496856557,0.036922337781318,60.895005088537,0.063922000000001
0.28616078581407,0.036984974201673,60.797706365905,0.064028205000001
0.28645615664395,0.037047604759239,60.700719652495,0.064134420000001
0.28675108243897,0.037110229455116,60.604043431025,0.064240645000001
0.28704556457618,0.037172848290403,60.507676194138,0.064346880000001
0.28733960442607,0.037235461266201,60.41161644431,0.064453125000001
0.28763320335254,0.037298068383611,60.315862693757,0.064559380000001
0.28792636271294,0.03736066964373,60.220413464377,0.064665645000001
0.28821908385818,0.037423265047659,60.125267287651,0.064771920000001
0.28851136813269,0.037485854596496,60.030422704583,0.064878205000001
0.28880321687452,0.037548438291339,59.935878265607,0.064984500000001
0.28909463141535,0.037611016133288,59.841632530519,0.065090805000001
0.28938561308056,0.037673588123439,59.747684068396,0.065197120000001
0.28967616318924,0.03773615426289,59.654031457526,0.065303445000001
0.28996628305424,0.037798714552738,59.560673285334,0.065409780000001
0.29025597398221,0.037861268994081,59.467608148294,0.065516125000001
0.29054523727367,0.037923817588015,59.374834651882,0.065622480000001
0.29083407422299,0.037986360335637,59.282351410483,0.065728845000001
0.29112248611847,0.038048897238042,59.190157047318,0.065835220000001
0.29141047424238,0.038111428296326,59.098250194396,0.065941605000001
0.29169803987099,0.038173953511584,59.006629492414,0.066048000000001
0.2919851842746,0.038236472884912,58.915293590705,0.066154405000001
0.29227190871758,0.038298986417404,58.824241147175,0.066260820000001
0.29255821445842,0.038361494110155,58.733470828213,0.066367245000001
0.29284410274976,0.03842399596426,58.642981308642,0.066473680000001
0.29312957483842,0.03848649198081,58.552771271642,0.066580125000001
0.29341463196545,0.038548982160902,58.462839408702,0.066686580000001
0.29369927536615,0.038611466505627,58.373184419522,0.066793045000001
0.29398350627013,0.038673945016078,58.283805011972,0.066899520000001
0.29426732590133,0.038736417693349,58.194699902028,0.067006005000001
0.29455073547803,0.038798884538531,58.105867813693,0.067112500000001
0.29483373621296,0.038861345552716,58.017307478949,0.067219005000001
0.29511632931324,0.038923800736997,57.929017637689,0.067325520000001
0.29539851598048,0.038986250092465,57.840997037648,0.067432045000001
0.29568029741081,0.03904869362021,57.75324443435,0.067538580000001
0.29596167479489,0.039111131321324,57.665758591047,0.067645125000001
0.29624264931793,0.039173563196897,57.578538278657,0.067751680000001
0.2965232221598,0.039235989248019,57.491582275699,0.067858245000001
0.29680339449496,0.03929840947578,57.404889368246,0.067964820000001
0.29708316749256,0.039360823881269,57.318458349858,0.068071405000001
0.29736254231647,0.039423232465576,57.232288021516,0.068178000000001
0.2976415201253,0.039485635229791,57.146377191585,0.068284605000001
0.29792010207241,0.039548032175,57.060724675738,0.068391220000001
0.29819828930598,0.039610423302294,56.975329296914,0.068497845
0.29847608296902,0.039672808612759,56.890189885246,0.068604480000001
0.29875348419942,0.039735188107483,56.805305278028,0.068711125
0.29903049412994,0.039797561787555,56.720674319635,0.06881778
0.2993071138883,0.039859929654061,56.63629586149,0.068924445000001
0.29958334459716,0.039922291708087,56.552168761993,0.06903112
0.29985918737418,0.039984647950721,56.46829188648,0.069137805
0.30013464333204,0.040046998383049,56.38466410717,0.0692445
0.30040971357846,0.040109343006156,56.301284303095,0.069351205
0.30068439921627,0.040171681821128,56.218151360075,0.06945792
0.30095870134338,0.04023401482905,56.13526417065,0.069564645
0.30123262105286,0.040296342031008,56.052621634026,0.06967138
0.30150615943294,0.040358663428085,55.970222656032,0.069778125
0.30177931756705,0.040420979021367,55.888066149077,0.069884880000001
0.30205209653385,0.040483288811938,55.806151032082,0.069991645
0.30232449740724,0.040545592800881,55.724476230444,0.070098420000001
0.30259652125645,0.040607890989279,55.643040675985,0.070205205
0.30286816914596,0.040670183378216,55.561843306903,0.070312
0.30313944213563,0.040732469968775,55.480883067721,0.070418805000001
0.30341034128069,0.040794750762038,55.400158909248,0.070525620000001
0.30368086763174,0.040857025759088,55.319669788521,0.070632445000001
0.30395102223482,0.040919294961006,55.239414668771,0.070739280000001
0.30422080613143,0.040981558368874,55.159392519359,0.070846125
0.30449022035852,0.041043815983774,55.079602315751,0.07095298
0.30475926594855,0.041106067806785,55.000043039467,0.071059845000001
0.30502794392954,0.041168313838991,54.920713678017,0.07116672
0.30529625532502,0.041230554081469,54.841613224882,0.071273605
0.30556420115414,0.041292788535302,54.76274067946,0.0713805
0.30583178243163,0.041355017201568,54.684095047014,0.071487405
0.30609900016788,0.041417240081347,54.605675338651,0.07159432
0.30636585536892,0.041479457175718,54.527480571251,0.071701245
0.30663234903647,0.04154166848576,54.449509767444,0.07180818
0.30689848216797,0.041603874012553,54.37176195556,0.071915125
0.30716425575657,0.041666073757173,54.294236169592,0.07202208
0.30742967079121,0.041728267720699,54.216931449151,0.072129045
0.30769472825658,0.04179045590421,54.139846839423,0.07223602
0.30795942913321,0.041852638308781,54.062981391137,0.072343005
0.30822377439745,0.041914814935491,53.986334160512,0.07245
0.30848776502151,0.041976985785417,53.909904209228,0.072557005
0.30875140197347,0.042039150859633,53.833690604378,0.07266402
0.30901468621732,0.042101310159218,53.757692418438,0.072771045
0.30927761871299,0.042163463685247,53.681908729225,0.07287808
0.30954020041634,0.042225611438795,53.606338619846,0.072985125
0.30980243227922,0.042287753420937,53.530981178674,0.07309218
0.31006431524947,0.042349889632749,53.455835499315,0.073199245
0.31032585027095,0.042412020075306,53.380900680549,0.07330632
0.31058703828358,0.042474144749681,53.306175826316,0.073413405
0.31084788022332,0.042536263656949,53.231660045659,0.0735205
0.31110837702222,0.042598376798184,53.157352452699,0.073627605
0.31136852960847,0.042660484174458,53.083252166604,0.07373472
0.31162833890636,0.042722585786847,53.009358311536,0.073841845
0.31188780583635,0.042784681636421,52.935670016626,0.07394898
0.31214693131506,0.042846771724254,52.862186415943,0.074056125
0.31240571625533,0.042908856051419,52.788906648447,0.07416328
0.3126641615662,0.042970934618986,52.715829857962,0.074270445
0.31292226815296,0.043033007428029,52.642955193143,0.07437762
0.31318003691716,0.043095074479617,52.570281807435,0.074484805
0.31343746875662,0.043157135774823,52.497808859045,0.074592
0.31369456456548,0.043219191314717,52.425535510904,0.074699205
0.3139513252342,0.04328124110037,52.353460930635,0.07480642
0.31420775164957,0.043343285132851,52.281584290526,0.074913645
0.31446384469477,0.043405323413231,52.209904767489,0.07502088
0.31471960524934,0.04346735594258,52.138421543028,0.075128125
0.31497503418923,0.043529382721966,52.06713380321,0.07523538
0.31523013238682,0.043591403752459,51.996040738639,0.075342645
0.31548490071093,0.043653419035127,51.925141544412,0.07544992
0.31573934002687,0.043715428571038,51.85443542009,0.075557205
0.31599345119639,0.043777432361262,51.783921569678,0.0756645
0.31624723507777,0.043839430406865,51.713599201578,0.075771805
0.3165006925258,0.043901422708916,51.643467528574,0.07587912
0.31675382439183,0.043963409268481,51.573525767793,0.075986445
0.31700663152375,0.044025390086627,51.503773140673,0.07609378
0.31725911476605,0.044087365164422,51.434208872936,0.076201125
0.31751127495979,0.04414933450293,51.364832194565,0.07630848
0.31776311294268,0.044211298103219,51.295642339757,0.076415845
0.31801462954903,0.044273255966354,51.226638546922,0.07652322
0.31826582560984,0.0443352080934,51.157820058619,0.076630605
0.31851670195275,0.044397154485424,51.089186121559,0.076738
0.31876725940211,0.044459095143488,51.020735986556,0.076845405
0.31901749877897,0.044521030068658,50.95246890851,0.07695282
0.31926742090111,0.044582959261999,50.884384146375,0.077060245
0.31951702658304,0.044644882724574,50.816480963128,0.07716768
0.31976631663606,0.044706800457447,50.74875862575,0.077275125
0.3200152918682,0.044768712461681,50.681216405191,0.07738258
0.32026395308435,0.044830618738339,50.613853576344,0.077490045
0.32051230108615,0.044892519288484,50.546669418025,0.07759752
0.32076033667212,0.044954414113179,50.479663212935,0.077705005
0.32100806063759,0.045016303213485,50.412834247646,0.0778125
0.32125547377478,0.045078186590465,50.346181812568,0.077920005
0.32150257687278,0.04514006424518,50.279705201917,0.07802752
0.32174937071758,0.045201936178692,50.213403713705,0.078135045
0.32199585609208,0.045263802392061,50.147276649702,0.07824258
0.32224203377612,0.045325662886348,50.081323315409,0.078350125
0.32248790454646,0.045387517662613,50.015543020051,0.07845768
0.32273346917687,0.045449366721917,49.949935076528,0.078565245
0.32297872843806,0.04551121006532,49.884498801407,0.07867282
0.32322368309775,0.04557304769388,49.819233514889,0.078780405
0.32346833392067,0.045634879608657,49.754138540789,0.078888
0.32371268166858,0.045696705810711,49.689213206513,0.078995605
0.32395672710027,0.045758526301099,49.624456843029,0.07910322
0.3242004709716,0.045820341080881,49.559868784847,0.079210845
0.32444391403551,0.045882150151113,49.495448369993,0.07931848
0.32468705704201,0.045943953512854,49.431194939991,0.079426125
0.32492990073823,0.046005751167161,49.367107839833,0.07953378
0.32517244586841,0.046067543115092,49.303186417959,0.079641445
0.32541469317394,0.046129329357703,49.239430026233,0.07974912
0.32565664339333,0.046191109896051,49.175838019928,0.079856805
0.32589829726228,0.046252884731192,49.112409757685,0.0799645
0.32613965551367,0.046314653864183,49.04914460152,0.080072205
0.32638071887756,0.046376417296077,48.986041916771,0.08017992
0.32662148808122,0.046438175027933,48.923101072094,0.080287645
0.32686196384916,0.046499927060803,48.860321439436,0.08039538
0.32710214690311,0.046561673395744,48.797702394019,0.080503125
0.32734203796204,0.046623414033809,48.735243314313,0.08061088
0.32758163774223,0.046685148976053,48.67294358201,0.080718645
0.32782094695719,0.04674687822353,48.610802582016,0.08082642
0.32805996631776,0.046808601777293,48.548819702423,0.080934205
0.32829869653207,0.046870319638396,48.486994334484,0.081042
0.32853713830557,0.046932031807892,48.425325872598,0.081149805
0.32877529234107,0.046993738286833,48.363813714291,0.08125762
0.32901315933869,0.047055439076272,48.302457260191,0.081365445
0.32925073999594,0.047117134177262,48.24125591401,0.08147328
0.32948803500771,0.047178823590854,48.180209082527,0.081581125
0.32972504506626,0.047240507318099,48.119316175561,0.08168898
0.32996177086127,0.04730218536005,48.058576605961,0.081796845
0.33019821307981,0.047363857717756,47.997989789574,0.08190472
0.33043437240642,0.047425524392269,47.937555145242,0.082012605
0.33067024952306,0.047487185384639,47.877272094766,0.0821205
0.33090584510913,0.047548840695917,47.8171400629,0.082228405
0.33114115984152,0.047610490327151,47.757158477325,0.08233632
0.33137619439461,0.047672134279393,47.697326768631,0.082444245
0.33161094944024,0.04773377255369,47.637644370302,0.08255218
0.33184542564778,0.047795405151092,47.578110718693,0.082660125
0.33207962368412,0.047857032072647,47.518725253016,0.08276808
0.33231354421366,0.047918653319405,47.45948741532,0.082876045
0.33254718789838,0.047980268892412,47.40039665047,0.08298402
0.33278055539779,0.048041878792718,47.341452406131,0.083092005
0.33301364736896,0.048103483021368,47.282654132759,0.0832
0.33324646446657,0.048165081579412,47.224001283567,0.083308005
0.33347900734288,0.048226674467894,47.165493314518,0.08341602
0.33371127664773,0.048288261687863,47.10712968431,0.083524045
0.33394327302862,0.048349843240365,47.048909854349,0.08363208
0.33417499713065,0.048411419126445,46.990833288738,0.083740125
0.33440644959657,0.048472989347149,46.932899454263,0.08384818
0.33463763106677,0.048534553903523,46.87510782037,0.083956245
0.33486854217932,0.048596112796612,46.817457859153,0.08406432
0.33509918356996,0.048657666027461,46.759949045331,0.084172405
0.33532955587211,0.048719213597115,46.702580856245,0.0842805
0.33555965971689,0.048780755506618,46.645352771821,0.084388605
0.33578949573315,0.048842291757013,46.588264274572,0.08449672
0.33601906454742,0.048903822349345,46.531314849574,0.084604845
0.33624836678399,0.048965347284657,46.474503984454,0.08471298
0.3364774030649,0.049026866563993,46.417831169367,0.084821125
0.33670617400992,0.049088380188394,46.361295896987,0.08492928
0.3369346802366,0.049149888158905,46.304897662491,0.085037445
0.33716292236027,0.049211390476566,46.248635963538,0.08514562
0.33739090099403,0.04927288714242,46.192510300259,0.085253805
0.3376186167488,0.04933437815751,46.136520175244,0.085362
0.33784607023329,0.049395863522875,46.080665093516,0.085470205
0.33807326205403,0.049457343239558,46.024944562529,0.08557842
0.3383001928154,0.049518817308599,45.969358092142,0.085686645
0.33852686311959,0.049580285731039,45.913905194611,0.08579488
0.33875327356667,0.049641748507918,45.85858538458,0.085903124999999
0.33897942475455,0.049703205640276,45.803398179043,0.086011379999999
0.33920531727902,0.049764657129153,45.748343097361,0.086119644999999
0.33943095173375,0.049826102975588,45.693419661221,0.086227919999999
0.33965632871031,0.04988754318062,45.638627394644,0.086336204999999
0.33988144879817,0.049948977745289,45.583965823947,0.086444499999999
0.34010631258469,0.050010406670632,45.529434477753,0.086552804999999
0.34033092065518,0.050071829957689,45.475032886955,0.086661119999999
0.34055527359287,0.050133247607496,45.420760584724,0.086769444999999
0.34077937197894,0.050194659621092,45.366617106474,0.086877779999999
0.34100321639251,0.050256065999514,45.312601989866,0.086986124999999
0.34122680741067,0.0503174667438,45.258714774781,0.087094479999999
0.34145014560848,0.050378861854986,45.204955003318,0.087202844999999
0.34167323155899,0.050440251334108,45.151322219772,0.087311219999999
0.34189606583322,0.050501635182203,45.09781597062,0.087419604999999
0.34211864900021,0.050563013400307,45.044435804518,0.087527999999999
0.34234098162699,0.050624385989456,44.99118127228,0.087636404999999
0.34256306427864,0.050685752950685,44.938051926864,0.087744819999999
0.34278489751824,0.050747114285029,44.885047323365,0.087853244999999
0.34300648190692,0.050808469993523,44.832167018996,0.087961679999999
0.34322781800386,0.050869820077201,44.779410573079,0.088070124999999
0.34344890636629,0.050931164537098,44.726777547034,0.08817858
0.3436697475495,0.050992503374248,44.674267504361,0.088287044999999
0.34389034210688,0.051053836589685,44.621880010631,0.088395519999999
0.34411069058988,0.051115164184441,44.569614633476,0.088504004999999
0.34433079354804,0.051176486159551,44.517470942571,0.088612499999999
0.34455065152903,0.051237802516046,44.465448509627,0.088721004999999
0.3447702650786,0.051299113254959,44.413546908378,0.088829519999999
0.34498963474064,0.051360418377323,44.361765714563,0.088938044999999
0.34520876105715,0.05142171788417,44.310104505925,0.089046579999999
0.34542764456829,0.051483011776531,44.258562862189,0.089155124999999
0.34564628581235,0.051544300055438,44.207140365055,0.089263679999999
0.34586468532577,0.051605582721922,44.155836598188,0.089372244999999
0.34608284364317,0.051666859777013,44.104651147202,0.089480819999999
0.34630076129734,0.051728131221743,44.053583599652,0.089589404999999
0.34651843881922,0.051789397057142,44.002633545023,0.089697999999999
0.34673587673798,0.051850657284239,43.951800574712,0.089806604999999
0.34695307558097,0.051911911904064,43.901084282027,0.089915219999999
0.34717003587373,0.051973160917647,43.850484262168,0.090023844999999
0.34738675814004,0.052034404326016,43.800000112218,0.090132479999999
0.34760324290188,0.052095642130202,43.749631431138,0.090241124999999
0.34781949067947,0.052156874331232,43.699377819743,0.090349779999999
0.34803550199127,0.052218100930134,43.649238880702,0.090458444999999
0.34825127735398,0.052279321927937,43.599214218525,0.090567119999999
0.34846681728256,0.052340537325668,43.549303439554,0.090675804999999
0.34868212229022,0.052401747124355,43.49950615194,0.090784499999999
0.34889719288847,0.052462951325025,43.449821965653,0.090893204999999
0.34911202958706,0.052524149928705,43.400250492457,0.091001919999999
0.34932663289405,0.052585342936421,43.350791345901,0.091110644999999
0.34954100331579,0.052646530349199,43.301444141311,0.091219379999999
0.34975514135692,0.052707712168067,43.252208495784,0.091328124999999
0.34996904752041,0.052768888394049,43.203084028168,0.091436879999999
0.35018272230752,0.05283005902817,43.154070359064,0.091545644999999
0.35039616621787,0.052891224071457,43.105167110802,0.091654419999999
0.35060937974938,0.052952383524934,43.056373907445,0.091763204999999
0.35082236339832,0.053013537389626,43.007690374766,0.091871999999999
0.35103511765931,0.053074685666556,42.959116140251,0.091980804999999
0.35124764302533,0.053135828356749,42.91065083308,0.092089619999999
0.35145993998771,0.05319696546123,42.862294084119,0.092198444999999
0.35167200903616,0.05325809698102,42.814045525913,0.092307279999999
0.35188385065876,0.053319222917144,42.765904792673,0.092416124999999
0.35209546534198,0.053380343270624,42.717871520274,0.092524979999999
0.35230685357067,0.053441458042484,42.669945346234,0.092633844999999
0.3525180158281,0.053502567233745,42.622125909712,0.092742719999999
0.35272895259592,0.053563670845429,42.574412851498,0.092851604999999
0.35293966435422,0.053624768878558,42.526805814004,0.092960499999999
0.35315015158148,0.053685861334155,42.479304441256,0.093069404999999
0.35336041475463,0.053746948213239,42.431908378876,0.093178319999999
0.35357045434902,0.053808029516833,42.384617274087,0.093287244999999
0.35378027083846,0.053869105245956,42.337430775692,0.093396179999999
0.35398986469519,0.053930175401629,42.290348534069,0.093505124999999
0.35419923638991,0.053991239984872,42.243370201169,0.093614079999999
0.35440838639179,0.054052298996706,42.196495430494,0.093723044999999
0.35461731516845,0.054113352438149,42.149723877102,0.093832019999999
0.35482602318601,0.054174400310221,42.103055197586,0.093941004999999
0.35503451090905,0.05423544261394,42.056489050075,0.094049999999999
0.35524277880064,0.054296479350327,42.010025094217,0.094159004999999
0.35545082732237,0.054357510520398,41.963662991182,0.094268019999999
0.35565865693431,0.054418536125173,41.917402403638,0.094377044999999
0.35586626809504,0.054479556165668,41.871242995759,0.094486079999999
0.35607366126167,0.054540570642903,41.825184433203,0.094595124999999
0.35628083688981,0.054601579557893,41.77922638311,0.094704179999999
0.35648779543361,0.054662582911656,41.7333685141,0.094813244999999
0.35669453734576,0.054723580705209,41.687610496245,0.094922319999999
0.35690106307748,0.054784572939569,41.641952001089,0.095031404999999
0.35710737307856,0.05484555961575,41.596392701609,0.095140499999999
0.3573134677973,0.05490654073477,41.550932272239,0.095249604999999
0.35751934768061,0.054967516297645,41.505570388832,0.095358719999999
0.35772501317393,0.055028486305388,41.460306728673,0.095467844999999
0.3579304647213,0.055089450759016,41.415140970467,0.095576979999999
0.35813570276531,0.055150409659544,41.37007279432,0.095686124999999
0.35834072774716,0.055211363007985,41.325101881743,0.095795279999999
0.35854554010662,0.055272310805354,41.280227915641,0.095904444999999
0.35875014028209,0.055333253052665,41.235450580307,0.096013619999999
0.35895452871053,0.055394189750932,41.19076956141,0.096122804999999
0.35915870582755,0.055455120901168,41.146184545992,0.096231999999999
0.35936267206735,0.055516046504387,41.101695222454,0.096341204999999
0.35956642786276,0.055576966561601,41.057301280559,0.096450419999999
0.35976997364522,0.055637881073822,41.013002411412,0.096559644999999
0.35997330984485,0.055698790042063,40.968798307468,0.096668879999999
0.36017643689035,0.055759693467337,40.924688662506,0.096778124999999
0.36037935520911,0.055820591350654,40.880673171639,0.096887379999999
0.36058206522715,0.055881483693027,40.836751531295,0.096996644999999
0.36078456736914,0.055942370495466,40.792923439218,0.097105919999999
0.36098686205844,0.056003251758983,40.749188594454,0.097215204999999
0.36118894971705,0.056064127484587,40.705546697349,0.097324499999999
0.36139083076566,0.05612499767329,40.661997449538,0.097433804999999
0.36159250562363,0.056185862326102,40.618540553944,0.097543119999999
0.36179397470902,0.056246721444032,40.575175714761,0.097652444999999
0.36199523843855,0.05630757502809,40.53190263746,0.097761779999999
0.36219629722767,0.056368423079285,40.488721028769,0.097871124999999
0.36239715149051,0.056429265598626,40.445630596678,0.097980479999999
0.36259780163992,0.056490102587122,40.402631050425,0.098089844999999
0.36279824808745,0.056550934045781,40.359722100489,0.098199219999999
0.36299849124338,0.056611759975612,40.316903458589,0.098308604999999
0.36319853151671,0.056672580377622,40.274174837668,0.098417999999999
0.36339836931517,0.056733395252818,40.2315359519,0.098527404999999
0.36359800504521,0.056794204602209,40.188986516671,0.098636819999999
0.36379743911204,0.056855008426802,40.146526248577,0.098746244999999
0.36399667191961,0.056915806727602,40.104154865421,0.098855679999999
0.36419570387061,0.056976599505617,40.0618720862,0.098965124999999
0.36439453536649,0.057037386761853,40.019677631102,0.099074579999999
0.36459316680747,0.057098168497316,39.9775712215,0.099184044999999
0.36479159859252,0.057158944713011,39.935552579949,0.099293519999999
0.3649898311194,0.057219715409943,39.893621430172,0.099403004999999
0.36518786478462,0.057280480589119,39.85177749706,0.099512499999999
0.3653856999835,0.057341240251543,39.81002050666,0.099622004999999
0.36558333711013,0.057401994398219,39.768350186174,0.099731519999999
0.36578077655739,0.057462743030151,39.726766263957,0.099841044999999
0.36597801871696,0.057523486148345,39.685268469498,0.099950579999999
0.36617506397932,0.057584223753802,39.643856533426,0.100060125
0.36637191273377,0.057644955847528,39.602530187497,0.10016968
0.3665685653684,0.057705682430525,39.561289164589,0.100279245
0.36676502227013,0.057766403503796,39.520133198703,0.10038882
0.3669612838247,0.057827119068343,39.479062024948,0.100498405
0.36715735041666,0.05788782912517,39.438075379538,0.100608
0.36735322242942,0.057948533675278,39.397172999788,0.100717605
0.36754890024519,0.058009232719669,39.356354624108,0.10082722
0.36774438424506,0.058069926259344,39.315619991996,0.100936845
0.36793967480893,0.058130614295306,39.274968844035,0.10104648
0.36813477231558,0.058191296828554,39.234400921881,0.101156125
0.36832967714261,0.05825197386009,39.193915968263,0.10126578
0.36852438966652,0.058312645390914,39.153513726979,0.101375445
0.36871891026265,0.058373311422027,39.113193942886,0.10148512
0.3689132393052,0.058433971954427,39.072956361893,0.101594805
0.36910737716726,0.058494626989116,39.032800730962,0.1017045
0.36930132422079,0.058555276527092,38.992726798099,0.101814205
0.36949508083665,0.058615920569354,38.952734312347,0.10192392
0.36968864738456,0.058676559116902,38.912823023784,0.102033645
0.36988202423315,0.058737192170733,38.872992683512,0.10214338
0.37007521174993,0.058797819731846,38.833243043663,0.102253125
0.37026821030134,0.058858441801239,38.793573857378,0.10236288
0.3704610202527,0.05891905837991,38.753984878814,0.102472645
0.37065364196824,0.058979669468857,38.71447586314,0.10258242
0.37084607581111,0.059040275069075,38.675046566517,0.102692205
0.37103832214338,0.059100875181563,38.63569674611,0.102802
0.37123038132604,0.059161469807317,38.596426160071,0.102911805
0.37142225371901,0.059222058947334,38.557234567543,0.10302162
0.37161393968114,0.059282642602609,38.518121728645,0.103131445
0.37180543957021,0.059343220774139,38.479087404478,0.10324128
0.37199675374295,0.059403793462918,38.440131357109,0.103351125
0.37218788255503,0.059464360669943,38.401253349575,0.10346098
0.37237882636106,0.059524922396207,38.362453145875,0.103570845
0.37256958551462,0.059585478642707,38.323730510959,0.10368072
0.37276016036822,0.059646029410436,38.285085210737,0.103790605
0.37295055127337,0.059706574700389,38.246517012059,0.1039005
0.3731407585805,0.05976711451356,38.208025682721,0.104010405
0.37333078263905,0.059827648850942,38.169610991452,0.10412032
0.37352062379741,0.059888177713528,38.131272707923,0.104230245
0.37371028240296,0.059948701102313,38.093010602721,0.10434018
0.37389975880204,0.060009219018288,38.054824447363,0.104450125
0.37408905334,0.060069731462446,38.016714014284,0.10456008
0.37427816636117,0.06013023843578,37.97867907683,0.104670045
0.37446709820887,0.060190739939281,37.94071940926,0.10478002
0.37465584922543,0.060251235973942,37.902834786736,0.104890005
0.37484441975216,0.060311726540754,37.865024985319,0.105
