d,ep,stress_yy,total_strain_yy
0,0,0,0
0,0,6.8797190688834,0.00010000499999996
0,0,13.758876406685,0.00020001999999997
0,0,20.637472210044,0.00030004499999992
0,0,27.515506675558,0.00040007999999991
0,0,34.392979999647,0.00050012499999996
0,0,41.269892378663,0.00060017999999995
0,0,48.146244008907,0.00070024499999988
0,0,55.022035086568,0.00080031999999997
0,0,61.897265807699,0.00090040499999988
0,0,68.771936368286,0.0010004999999998
0,0,75.646046964208,0.0011006050000001
0,0,82.519597791284,0.00120072
0,0,89.392589045164,0.0013008450000001
0,0,96.265020921448,0.0014009800000001
0,0,103.13689361571,0.0015011250000001
0,0,110.00820732331,0.00160128
0,0,116.87896223956,0.001701445
0,0,123.74915855968,0.0018016200000001
0,0,130.61879647882,0.001901805
0,0,137.48787619199,0.0020019999999999
0,0,144.35639789413,0.002102205
0,0,151.22436178007,0.0022024199999999
0,0,158.09176804461,0.002302645
0,0,164.9586168823,0.00240288
0,0,171.82490848776,0.0025031249999999
0,0,178.69064305547,0.0026033799999999
0,0,185.55582077975,0.002703645
0,0,192.42044185489,0.00280392
0,0,199.28450647504,0.0029042049999999
0,0,206.14801483432,0.0030044999999999
0,0,213.01096712673,0.0031048050000001
0,0,219.8733635461,0.0032051200000001
0,0,226.7352042863,0.0033054450000001
0,0,233.59648954101,0.00340578
0,0,240.45721950385,0.003506125
0,0,247.3173943683,0.0036064800000001
0,0,254.17701432781,0.0037068450000001
0,0,261.03607957571,0.00380722
0,0,267.89459030523,0.003907605
0,0,274.75254670952,0.004008
0,0,281.60994898159,0.004108405
0,0,288.46679731447,0.00420882
0,0,295.32309190096,0.004309245
0,0,302.17883293384,0.00440968
0,0,309.03402060575,0.0045101249999999
0,0,315.88865510935,0.0046105799999999
0,3.1362790300889e-05,319.51666031667,0.004711045
0,9.7549931077492e-05,319.56205353714,0.00481152
0,0.00016373052342964,319.60744224617,0.0049120049999999
0,0.00022990456865699,319.65282644462,0.0050124999999999
0,0.00029607206805886,319.69820613339,0.0051130050000001
0,0.00036223302293344,319.74358131341,0.0052135200000001
0,0.0004283874345793,319.78895198557,0.0053140450000001
0,0.0004945353042943,319.83431815073,0.0054145800000001
0,0.00056067663337608,319.8796798098,0.0055151250000001
0,0.00062681142312189,319.92503696369,0.00561568
0,0.00069293967482823,319.97038961329,0.005716245
0,0.00075906138979166,320.01573775949,0.0058168200000001
0,0.00082517656930806,320.0610814032,0.005917405
0,0.00089128521467318,320.10642054529,0.006018
0,0.00095738732718205,320.15175518668,0.0061186049999999
0,0.0010234829081297,320.19708532824,0.00621922
0,0.0010895719588104,320.24241097089,0.0063198449999999
0,0.0011556544805185,320.28773211551,0.0064204799999999
0,0.0012217304745473,320.33304876299,0.0065211249999999
0,0.0012877999421905,320.37836091422,0.0066217799999999
0,0.0013538628847407,320.42366857009,0.006722445
0,0.0014199193034906,320.46897173151,0.00682312
0,0.0014859691997321,320.51427039937,0.0069238049999999
0,0.0015520125747572,320.55956457454,0.0070244999999999
0,0.0016180494298573,320.60485425795,0.0071252049999999
0,0.0016840797663234,320.65013945046,0.0072259200000001
0,0.0017501035854459,320.69542015295,0.0073266450000001
0,0.0018161208885151,320.74069636634,0.0074273800000001
0,0.001882131676821,320.78596809151,0.0075281250000001
0,0.001948135951653,320.83123532935,0.0076288800000001
0,0.0020141337142998,320.87649808076,0.0077296450000001
0,0.0020801249660506,320.92175634661,0.00783042
0,0.0021461097081934,320.96701012781,0.007931205
0,0.0022120879420163,321.01225942525,0.008032
0,0.0022780596688069,321.05750423979,0.008132805
0,0.0023440248898522,321.10274457233,0.0082336199999999
0,0.0024099836064389,321.14798042379,0.008334445
0,0.0024759358198536,321.19321179503,0.0084352799999999
0,0.0025418815313822,321.23843868692,0.008536125
0,0.0026078207423103,321.28366110039,0.0086369799999999
0,0.0026737534539233,321.3288790363,0.008737845
0,0.002739679667506,321.37409249554,0.00883872
0,0.0028055993843428,321.41930147903,0.0089396049999999
0,0.0028715126057179,321.46450598759,0.0090404999999999
0,0.0029374193329151,321.50970602216,0.0091414049999999
0,0.0030033195672174,321.55490158363,0.0092423199999999
0,0.0030692133099083,321.60009267286,0.0093432450000001
0,0.0031351005622699,321.64527929071,0.00944418
0,0.0032009813255847,321.69046143813,0.009545125
0,0.0032668556011343,321.73563911595,0.00964608
0,0.0033327233902003,321.78081232509,0.009747045
0,0.0033985846940637,321.82598106642,0.0098480200000001
0,0.0034644395140052,321.87114534082,0.0099490050000001
0,0.0035302878513052,321.91630514919,0.01005
0,0.0035961297072435,321.96146049241,0.010151005
0,0.0036619650830998,322.00661137133,0.01025202
0,0.0037277939801529,322.05175778689,0.010353045
0,0.003793616399682,322.09689973993,0.01045408
0,0.0038594323429652,322.14203723135,0.010555125
0,0.0039252418112807,322.18717026202,0.01065618
0,0.0039910448059061,322.23229883287,0.010757245
0,0.0040568413281187,322.27742294468,0.01085832
0,0.0041226313791955,322.32254259843,0.010959405
0,0.0041884149604127,322.36765779497,0.0110605
0,0.0042541920730466,322.41276853518,0.011161605
0,0.004319962718373,322.45787481992,0.01126272
0,0.0043857268976673,322.50297665009,0.011363845
3.0102586596828e-05,0.0044514096290142,322.49298345259,0.01146498
0.00011754954182075,0.0045169430630656,322.37806325251,0.011566125
0.00026003969628532,0.0045823329455589,322.16254008017,0.01166728
0.00045531008517838,0.0046475849265628,321.85076037306,0.011768445
0.00070113878193166,0.0047127045534272,321.44707415072,0.01186962
0.00099534802935264,0.0047776972629929,320.95581651409,0.011970805
0.0013358069724578,0.0048425683747943,320.38129077448,0.012072
0.0017204340108132,0.0049073230852114,319.72775319425,0.012173205
0.0021471987891583,0.0049719664625207,318.9993993082,0.01227442
0.0026141238463742,0.0050365034428005,318.20035177896,0.012375645
0.0031192859425976,0.005100938826636,317.33464973137,0.01247688
0.0036608170857423,0.005165277276575,316.4062394995,0.012578125
0.004236905277773,0.005229523315281,315.41896671498,0.01267938
0.0048457950016035,0.0052936813243327,314.3765696591,0.012780645
0.0054857874689929,0.0053577555436188,313.28267379827,0.01288192
0.0061552406492955,0.0054217500712792,312.14078742046,0.012983205
0.0068525690987631,0.0054856688641428,310.95429828831,0.0130845
0.0075762436087997,0.0055495157386154,309.72647122723,0.013185805
0.0083247906916911,0.0056132943719739,308.460446565,0.01328712
0.0090967919206211,0.0056770083040221,307.15923934445,0.013388445
0.0098908831407496,0.0057406609390676,305.825739231,0.01348978
0.010705753566635,0.0058042555481831,304.4627110416,0.013591125
0.011540144780767,0.0058677952717105,303.07279582426,0.01369248
0.012392849646913,0.0059312831219819,301.65851242154,0.013793845
0.013262711150961,0.005994721986216,300.22225945563,0.01389522
0.014148621181308,0.0060581146295676,298.76631767599,0.013996605
0.015049519259643,0.0061214636983003,297.29285261589,0.014098
0.015964391232396,0.0061847717230562,295.80391750706,0.014199405
0.01689226793197,0.0062480411222,294.30145640704,0.01430082
0.017832223816453,0.0063112742052185,292.7873074966,0.014402245
0.0187833755952,0.0063744731761523,291.26320650975,0.01450368
0.019744880847509,0.0064376401370468,289.73079026134,0.014605125
0.020715936640567,0.0065007770914034,288.19160024158,0.01470658
0.021695778152081,0.006563885947619,286.64708625005,0.014808045
0.022683677302851,0.0066269685223999,285.09861004448,0.01490952
0.023678941403364,0.0066900265441419,283.54744898308,0.015011005
0.024680911818554,0.0067530616562634,281.9947996413,0.0151125
0.025688962653701,0.0068160754204866,280.44178138707,0.015214005
0.026702499464691,0.0068790693200566,278.88943990038,0.01531552
0.027720957994853,0.0069420447628952,277.33875062526,0.015417045
0.028743802940478,0.0070050030846824,275.79062214438,0.01551858
0.029770526746703,0.0070679455518617,274.24589946793,0.015620125
0.030800648435227,0.0071308733645667,272.7053672302,0.01572168
0.03183371246461,0.0071937876594651,271.1697527887,0.015823245
0.032869287624395,0.0072566895125196,269.6397292217,0.01592482
0.033906965963254,0.0073195799416625,268.11591822134,0.016026405
0.034946361751656,0.0073824599093852,266.59889288063,0.016128
0.0359871104792,0.0074453303252402,265.08918037307,0.016229605
0.037028867886517,0.007508192048257,263.58726452489,0.01633122
0.038071309031687,0.0075710458892727,262.09358828016,0.016432845
0.039114127390814,0.0076338926131759,260.60855605968,0.01653448
0.04015703399228,0.0076967329410671,259.13253601539,0.016636125
0.04119975658437,0.0077595675523367,257.66586218168,0.01673778
0.042242038835448,0.0078223970866602,256.20883652628,0.016839445
0.043283639566124,0.0078852221459142,254.76173090299,0.01694112
0.044324332012758,0.0079480432960149,253.32478890872,0.017042805
0.045363903121389,0.0080108610686796,251.89822764817,0.0171445
0.046402152871436,0.008073675963114,250.48223940871,0.017246205
0.047438893628209,0.0081364884476283,249.07699324876,0.01734792
0.048473949523428,0.0081992989611828,247.68263650303,0.017449645
0.049507155862874,0.0082621079148663,246.29929620721,0.01755138
0.050538358560279,0.0083249156933074,244.9270804461,0.017653125
0.051567411928496,0.0083877226601803,243.56608187943,0.01775488
0.052594183251733,0.0084505291468172,242.21637204997,0.017856645
0.053618547116344,0.008513335466332,240.87800956281,0.01795842
0.054640386697093,0.0085761419104184,239.5510387573,0.018060205
0.055659593309092,0.0086389487504678,238.23549071724,0.018162
0.056676065980653,0.0087017562386352,236.93138422273,0.018263805
0.057689711046338,0.0087645646088537,235.63872664644,0.01836562
0.058700441759365,0.0088273740778032,234.35751479675,0.018467445
0.059708177922563,0.0088901848458294,233.08773571101,0.01856928
0.060712845537183,0.008952997097821,231.82936740077,0.018671125
0.061714376468595,0.0090158110040435,230.58237955224,0.01877298
0.062712708128436,0.0090786267209323,229.34673418368,0.018874845
0.063707783172244,0.0091414443918471,228.1223862624,0.01897672
0.064699549212032,0.0092042641477887,226.90928428342,0.019078605
0.065687958543083,0.0092670861080807,225.70737081198,0.0191805
0.066672967884357,0.0093299103810176,224.51658299171,0.019282405
0.067654538131852,0.0093927370644795,223.33685302063,0.01938432
0.068632634124379,0.0094555662465165,222.16810859647,0.019486245
0.069607224421149,0.0095183980059041,221.01027333342,0.01958818
0.07057828109055,0.0095812324126697,219.86326715167,0.019690125
0.071545779509762,0.0096440695285923,218.72700664136,0.01979208
0.072509698174484,0.0097069094076779,217.60140540257,0.019894045
0.073470018518533,0.009769752096609,216.48637436255,0.01999602
0.074426724742565,0.0098325976351717,215.38182207164,0.020098005
0.075379803651727,0.009895446056661,214.28765497929,0.0202
0.076329244501703,0.0099582973882652,213.2037776909,0.020302005
0.077275038852693,0.010021151651429,212.1300932072,0.02040402
0.078217180431027,0.010084008862201,211.06650314699,0.020506045
0.079155664998054,0.010146869031557,210.01290795393,0.02060808
0.080090490225784,0.010209732165715,208.96920708904,0.020710125
0.081021655579185,0.010272598266423,207.9352992091,0.02081218
0.081949162204626,0.010335467331244,206.91108233226,0.020914245
0.082873012824248,0.010398339353814,205.89645399146,0.02101632
0.083793211635911,0.010461214324094,204.89131137654,0.021118405
0.084709764218464,0.010524092228604,203.89555146563,0.0212205
0.085622677442096,0.010586973050652,202.90907114656,0.021322605
0.086531959383495,0.01064985677054,201.93176732889,0.02142472
0.087437619245509,0.010712743365766,200.96353704724,0.021526845
0.088339667281228,0.010775632811213,200.00427755634,0.02162898
0.089238114722042,0.010838525079333,199.05388641852,0.021731125
0.090132973709753,0.010901420140308,198.11226158382,0.02183328
0.091024257232239,0.010964317962218,197.17930146364,0.021935445
0.091911979062736,0.011027218511188,196.25490499792,0.02203762
0.092796153702396,0.011090121751533,195.33897171654,0.022139805
0.093676796326018,0.011153027645892,194.43140179525,0.022242
0.094553922730762,0.011215936155359,193.53209610646,0.022344205
0.09542754928774,0.011278847239599,192.64095626524,0.02244642
0.096297692896256,0.011341760856967,191.757884671,0.022548645
0.097164370940619,0.011404676964612,190.88278454486,0.02265088
0.098027601249417,0.01146759551858,190.0155599632,0.022753125
0.098887402057007,0.01153051647391,189.15611588767,0.02285538
0.099743791967286,0.011593439784725,188.30435819181,0.022957645
0.10059678991939,0.011656365404315,187.46019368455,0.02305992
0.10144641515551,0.011719293285222,186.62353013077,0.023162205
0.10229268719042,0.01178222337931,185.79427626927,0.0232645
0.10313562578283,0.01184515563784,184.97234182812,0.023366805
0.10397525090844,0.011908090011538,184.15763753772,0.02346912
0.10481158273444,0.011971026450657,183.35007514179,0.023571445
0.10564464159567,0.012033964905034,182.54956740623,0.02367378
0.10647444797205,0.012096905324152,181.75602812622,0.023776125
0.10730102246743,0.012159847657188,180.96937213154,0.02387848
0.10812438578971,0.012222791853064,180.18951529045,0.023980845
0.10894455873214,0.012285737860494,179.41637451183,0.02408322
0.10976156215569,0.012348685628028,178.64986774634,0.024185605
0.1105754169727,0.01241163510409,177.88991398598,0.024288
0.11138614413128,0.012474586237023,177.13643326281,0.024390405
0.1121937646009,0.012537538975119,176.38934664635,0.02449282
0.11299829935874,0.012600493266654,175.64857624026,0.024595245
0.11379976937704,0.012663449059923,174.91404517796,0.02469768
0.11459819561112,0.012726406303266,174.18567761747,0.024800125
0.11539359898832,0.012789364945098,173.46339873567,0.02490258
0.11618600039754,0.012852324933933,172.7471347216,0.025005045
0.11697542067956,0.012915286218409,172.03681276948,0.02510752
0.11776188061803,0.012978248747312,171.33236107084,0.025210005
0.11854540093092,0.013041212469595,170.63370880649,0.0253125
0.11932600226281,0.013104177334398,169.94078613772,0.025415005
0.1201037051775,0.013167143291066,169.25352419733,0.02551752
0.12087853015125,0.013230110289167,168.57185508022,0.025620045
0.12165049756655,0.013293078278508,167.89571183358,0.02572258
0.12241962770623,0.013356047209146,167.22502844693,0.025825125
0.12318594074816,0.013419017031405,166.5597398418,0.02592768
0.12394945676024,0.013481987695886,165.89978186132,0.026030245
0.12471019569586,0.01354495915348,165.24509125943,0.02613282
0.1254681773897,0.013607931355379,164.59560569014,0.026235405
0.12622342155387,0.013670904253083,163.95126369651,0.026338
0.12697594777443,0.01373387779841,163.31200469959,0.026440605
0.12772577550815,0.013796851943503,162.6777689872,0.02654322
0.12847292407962,0.013859826640841,162.0484977028,0.026645845
0.1292174126786,0.013922801843241,161.4241328341,0.02674848
0.12995926035767,0.013985777503866,160.80461720178,0.026851125
0.13069848603008,0.014048753576229,160.18989444817,0.02695378
0.13143510846786,0.014111730014201,159.57990902588,0.027056445
0.13216914630015,0.014174706772009,158.97460618651,0.02715912
0.13290061801169,0.014237683804248,158.3739319694,0.027261805
0.1336295419416,0.014300661065875,157.77783319021,0.0273645
0.1343559362822,0.01436363851222,157.18625742991,0.027467205
0.13507981907817,0.014426616098983,156.59915302347,0.02756992
0.13580120822567,0.014489593782236,156.01646904887,0.027672645
0.13652012147183,0.01455257151843,155.438155316,0.02777538
0.13723657641418,0.014615549264387,154.86416235581,0.027878125
0.13795059050035,0.014678526977311,154.29444140938,0.02798088
0.13866218102783,0.014741504614779,153.72894441723,0.028083645
0.13937136514387,0.014804482134749,153.16762400862,0.02818642
0.14007815984544,0.014867459495556,152.61043349103,0.028289205
0.14078258197941,0.014930436655911,152.05732683967,0.028392
0.14148464824264,0.014993413574904,151.5082586872,0.028494805
0.14218437518237,0.015056390211999,150.96318431348,0.02859762
0.14288177919649,0.015119366527037,150.42205963545,0.028700445
0.14357687653406,0.015182342480232,149.88484119718,0.02880328
0.14426968329577,0.015245318032172,149.35148616001,0.028906125
0.14496021543457,0.015308293143814,148.82195229279,0.02900898
0.14564848875625,0.015371267776488,148.29619796228,0.029111845
0.14633451892021,0.015434241891889,147.77418212367,0.02921472
0.14701832144015,0.01549721545208,147.25586431128,0.029317605
0.14769991168491,0.015560188419486,146.74120462918,0.0294205
0.14837930487931,0.015623160756895,146.23016374229,0.029523405
0.14905651610505,0.015686132427454,145.72270286726,0.02962632
0.1497315603016,0.015749103394669,145.21878376371,0.029729245
0.15040445226721,0.015812073622399,144.71836872551,0.02983218
0.15107520665985,0.015875043074855,144.22142057219,0.029935125
0.15174383799831,0.015938011716598,143.72790264051,0.03003808
0.15241036066316,0.016000979512538,143.23777877612,0.030141045
0.15307478889793,0.016063946427927,142.75101332538,0.03024402
0.15373713681011,0.016126912428359,142.26757112731,0.030347005
0.15439741837229,0.016189877479768,141.78741750563,0.03045
0.15505564742335,0.016252841548422,141.31051826099,0.030553005
0.15571183766954,0.016315804600924,140.83683966321,0.03065602
0.1563660026857,0.016378766604206,140.3663484438,0.030759045
0.15701815591638,0.016441727525527,139.89901178849,0.03086208
0.15766831067707,0.016504687332471,139.43479732991,0.030965125
0.15831648015537,0.016567645992942,138.97367314036,0.03106818
0.1589626774122,0.016630603475163,138.5156077248,0.031171245
0.159606915383,0.016693559747672,138.06057001388,0.03127432
0.16024920687895,0.016756514779319,137.60852935702,0.031377405
0.16088956458818,0.016819468539263,137.15945551578,0.0314805
0.16152800107699,0.016882420996969,136.71331865718,0.031583605
0.16216452879106,0.016945372122205,136.27008934721,0.03168672
0.1627991600567,0.017008321885037,135.82973854448,0.031789845
0.16343190708202,0.017071270255831,135.39223759384,0.03189298
0.16406278195817,0.017134217205246,134.95755822035,0.031996125
0.16469179666058,0.017197162704228,134.52567252306,0.03209928
0.16531896305012,0.017260106724015,134.09655296913,0.032202445
0.16594429287434,0.017323049236128,133.67017238796,0.03230562
0.16656779776869,0.017385990212369,133.2465039654,0.032408805
0.16718948925766,0.017448929624819,132.82552123809,0.032512
0.16780937875603,0.017511867445834,132.40719808797,0.032615205
0.16842747757003,0.017574803648044,131.9915087367,0.03271842
0.16904379689851,0.017637738204348,131.57842774036,0.032821645
0.16965834783416,0.017700671087911,131.16792998415,0.03292488
0.1702711413646,0.017763602272162,130.75999067722,0.033028125
0.17088218837361,0.017826531730791,130.35458534757,0.03313138
0.17149149964224,0.017889459437746,129.95168983701,0.033234645
0.17209908584994,0.01795238536723,129.5512802963,0.03333792
0.17270495757574,0.018015309493699,129.15333318027,0.033441205
0.17330912529932,0.018078231791857,128.7578252431,0.0335445
0.17391159940217,0.018141152236654,128.36473353364,0.033647805
0.17451239016867,0.018204070803288,127.97403539085,0.03375112
0.17511150778716,0.018266987467193,127.58570843924,0.033854445
0.17570896235108,0.018329902204044,127.19973058454,0.03395778
0.17630476386001,0.018392814989752,126.81608000923,0.034061125
0.17689892222075,0.01845572580046,126.43473516843,0.03416448
0.17749144724834,0.018518634612542,126.05567478553,0.034267845
0.17808234866717,0.018581541402599,125.67887784823,0.03437122
0.17867163611194,0.018644446147458,125.30432360435,0.034474605
0.17925931912872,0.018707348824168,124.93199155797,0.034578
0.17984540717599,0.018770249409998,124.56186146544,0.034681405
0.18042990962557,0.018833147882435,124.19391333157,0.03478482
0.18101283576369,0.018896044219181,123.82812740585,0.034888245
0.18159419479192,0.01895893839815,123.46448417876,0.03499168
0.18217399582814,0.019021830397466,123.10296437812,0.035095125
0.18275224790754,0.019084720195462,122.74354896548,0.03519858
0.18332895998352,0.019147607770675,122.38621913265,0.035302045
0.18390414092865,0.019210493101846,122.0309562982,0.03540552
0.18447779953562,0.019273376167916,121.67774210411,0.035509005
0.18504994451811,0.019336256948025,121.32655841238,0.0356125
0.18562058451172,0.019399135421508,120.97738730182,0.035716005
0.18618972807488,0.019462011567894,120.63021106474,0.03581952
0.1867573836897,0.019524885366906,120.28501220386,0.035923045
0.18732355976288,0.019587756798453,119.94177342916,0.03602658
0.18788826462654,0.019650625842634,119.60047765482,0.036130125
0.18845150653912,0.01971349247973,119.26110799625,0.03623368
0.18901329368616,0.01977635669021,118.92364776707,0.036337245
0.18957363418118,0.019839218454718,118.58808047629,0.03644082
0.19013253606649,0.019902077754081,118.25438982538,0.036544405
0.19069000731401,0.019964934569302,117.92255970548,0.036648
0.19124605582606,0.020027788881558,117.59257419473,0.036751605
0.19180068943615,0.020090640672198,117.26441755542,0.03685522
0.19235391590977,0.020153489922744,116.93807423142,0.036958845
0.19290574294519,0.020216336614886,116.61352884555,0.03706248
0.19345617817415,0.020279180730481,116.29076619697,0.037166125
0.19400522916271,0.02034202225155,115.9697712587,0.03726978
0.19455290341191,0.020404861160279,115.65052917507,0.037373445
0.19509920835855,0.020467697439015,115.33302525933,0.03747712
0.19564415137592,0.020530531070262,115.01724499122,0.037580805
0.19618773977448,0.020593362036686,114.70317401463,0.0376845
0.19672998080259,0.020656190321106,114.3907981352,0.037788205
0.19727088164724,0.020719015906496,114.08010331813,0.03789192
0.19781044943468,0.020781838775982,113.77107568589,0.037995645
0.19834869123111,0.020844658912843,113.46370151601,0.03809938
0.19888561404341,0.020907476300504,113.15796723888,0.038203125
0.19942122481973,0.020970290922539,112.85385943567,0.03830688
0.1999555304502,0.021033102762668,112.55136483619,0.038410645
0.20048853776755,0.021095911804755,112.25047031683,0.03851442
0.20102025354772,0.021158718032806,111.95116289851,0.038618205
0.20155068451056,0.021221521430969,111.65342974473,0.038722
0.2020798373204,0.02128432198353,111.35725815955,0.038825805
0.20260771858667,0.021347119674914,111.06263558569,0.03892962
0.2031343348645,0.021409914489683,110.76954960261,0.039033445
0.20365969265536,0.021472706412532,110.47798792463,0.03913728
0.20418379840759,0.02153549542829,110.18793839911,0.039241125
0.20470665851703,0.02159828152192,109.89938900464,0.03934498
0.20522827932756,0.021661064678511,109.61232784923,0.039448845
0.2057486671317,0.021723844883286,109.3267431686,0.03955272
0.20626782817114,0.021786622121593,109.0426233244,0.039656605
0.20678576863731,0.021849396378907,108.75995680256,0.0397605
0.20730249467192,0.021912167640826,108.47873221161,0.039864405
0.20781801236751,0.021974935893075,108.19893828102,0.03996832
0.20833232776796,0.022037701121499,107.92056385959,0.040072245
0.20884544686903,0.022100463312063,107.64359791387,0.04017618
0.20935737561887,0.022163222450854,107.3680295266,0.040280125
0.20986811991855,0.022225978524076,107.09384789512,0.04038408
0.21037768562252,0.02228873151805,106.82104232994,0.040488045
0.21088607853918,0.022351481419213,106.54960225315,0.04059202
0.21139330443129,0.022414228214116,106.27951719704,0.040696005
0.21189936901652,0.022476971889424,106.01077680259,0.0408
0.2124042779679,0.022539712431915,105.74337081808,0.040904005
0.21290803691428,0.022602449828476,105.47728909768,0.04100802
0.21341065144084,0.022665184066104,105.21252160007,0.041112045
0.21391212708951,0.022727915131907,104.9490583871,0.04121608
0.21441246935942,0.022790643013098,104.68688962242,0.041320125
0.21491168370741,0.022853367696996,104.42600557018,0.04142418
0.2154097755484,0.022916089171028,104.16639659377,0.041528245
0.21590675025587,0.022978807422722,103.90805315449,0.04163232
0.21640261316228,0.023041522439711,103.65096581032,0.041736405
0.2168973695595,0.02310423420973,103.3951252147,0.0418405
0.21739102469923,0.023166942720614,103.14052211527,0.041944605
0.21788358379341,0.023229647960298,102.88714735272,0.04204872
0.21837505201463,0.023292349916817,102.63499185959,0.042152845
0.21886543449656,0.023355048578302,102.38404665908,0.04225698
0.21935473633431,0.023417743932981,102.13430286396,0.042361125
0.21984296258485,0.02348043596918,101.88575167541,0.04246528
0.2203301182674,0.023543124675318,101.63838438191,0.042569445
0.22081620836382,0.023605810039908,101.39219235813,0.04267362
0.22130123781896,0.023668492051556,101.14716706392,0.042777805
0.22178521154106,0.023731170698961,100.90330004317,0.042882
0.22226813440213,0.023793845970911,100.66058292282,0.042986205
0.2227500112383,0.023856517856286,100.41900741179,0.04309042
0.22323084685018,0.023919186344055,100.1785653,0.043194645
0.22371064600321,0.023981851423274,99.939248457364,0.04329888
0.22418941342804,0.024044513083087,99.701048832788,0.043403125
0.22466715382088,0.024107171312726,99.463958453213,0.04350738
0.22514387184377,0.024169826101507,99.227969422679,0.043611645
0.22561957212504,0.024232477438832,98.993073921335,0.04371592
0.22609425925953,0.024295125314185,98.759264204584,0.043820205
0.22656793780901,0.024357769717136,98.52653260208,0.0439245
0.22704061230245,0.024420410637335,98.294871516905,0.044028805
0.22751228723635,0.024483048064514,98.064273424658,0.04413312
0.2279829670751,0.024545681988488,97.83473087256,0.044237445
0.22845265625125,0.024608312399148,97.606236478611,0.04434178
0.22892135916584,0.024670939286468,97.378782930745,0.044446125
0.22938908018871,0.024733562640497,97.152362985983,0.04455048
0.22985582365879,0.024796182451365,96.92696946962,0.044654845
0.23032159388442,0.024858798709276,96.70259527439,0.04475922
0.23078639514362,0.024921411404511,96.479233359693,0.044863605
0.23125023168442,0.024984020527428,96.256876750783,0.044968
0.23171310772511,0.025046626068457,96.035518538022,0.045072405
0.23217502745455,0.025109228018104,95.815151876063,0.04517682
0.23263599503244,0.025171826366948,95.595769983117,0.045281245000001
0.23309601458962,0.025234421105638,95.377366140241,0.04538568
0.23355509022832,0.025297012224899,95.159933690556,0.045490125
0.23401322602243,0.025359599715523,94.94346603854,0.04559458
0.2344704260178,0.025422183568376,94.72795664931,0.045699045
0.23492669423249,0.025484763774392,94.513399047932,0.04580352
0.235382034657,0.025547340324574,94.299786818709,0.045908005
0.23583645125459,0.025609913209995,94.087113604495,0.0460125
0.2362899479615,0.025672482421793,93.875373106045,0.046117005
0.23674252868719,0.025735047951176,93.664559081318,0.04622152
0.23719419731464,0.025797609789418,93.454665344835,0.046326045
0.23764495770053,0.025860167927858,93.245685767039,0.04643058
0.23809481367556,0.025922722357901,93.037614273642,0.046535125
0.23854376904463,0.025985273071016,92.830444844998,0.04663968
0.2389918275871,0.026047820058738,92.624171515495,0.046744245
0.23943899305703,0.026110363312663,92.418788372926,0.04684882
0.23988526918342,0.026172902824452,92.214289557892,0.046953405000001
0.24033065967043,0.026235438585828,92.010669263206,0.047058
0.24077516819759,0.026297970588575,91.807921733302,0.047162605
0.24121879842008,0.026360498824538,91.60604126367,0.04726722
0.24166155396887,0.026423023285625,91.405022200255,0.047371845
0.24210343845104,0.026485543963802,91.204858938926,0.04747648
0.2425444554499,0.026548060851094,91.005545924895,0.047581125
0.24298460852527,0.026610573939587,90.807077652169,0.04768578
0.24342390121367,0.026673083221425,90.609448663029,0.047790445
0.24386233702854,0.026735588688809,90.41265354748,0.04789512
0.24429991946043,0.026798090333998,90.216686942718,0.047999805
0.24473665197721,0.026860588149308,90.021543532626,0.0481045
0.24517253802429,0.026923082127112,89.827218047244,0.048209205
0.24560758102481,0.026985572259839,89.633705262279,0.04831392
0.24604178437982,0.027048058539971,89.440999998592,0.048418645
0.24647515146851,0.027110540960048,89.249097121708,0.04852338
0.24690768564839,0.027173019512662,89.057991541342,0.048628125
0.24733939025547,0.027235494190461,88.867678210897,0.04873288
0.24777026860445,0.027297964986146,88.678152127001,0.048837645
0.24820032398895,0.02736043189247,88.489408329043,0.04894242
0.24862955968162,0.02742289490224,88.301441898708,0.049047205
0.24905797893439,0.027485354008312,88.114247959522,0.049152000000001
0.24948558497862,0.027547809203599,87.927821676395,0.049256805
0.2499123810253,0.027610260481059,87.742158255189,0.04936162
0.25033837026518,0.027672707833707,87.557252942274,0.049466445000001
0.25076355586902,0.027735151254602,87.373101024098,0.04957128
0.25118794098769,0.027797590736858,87.189697826748,0.049676125
0.25161152875239,0.027860026273635,87.007038715547,0.04978098
0.2520343222748,0.027922457858144,86.825119094637,0.049885845
0.25245632464724,0.027984885483644,86.643934406543,0.04999072
0.25287753894286,0.028047309143443,86.463480131799,0.050095605
0.25329796821578,0.028109728830894,86.283751788535,0.0502005
0.25371761550129,0.0281721445394,86.104744932072,0.050305405
0.25413648381594,0.02823455626241,85.926455154552,0.05041032
0.25455457615779,0.028296963993419,85.748878084539,0.050515245
0.25497189550648,0.028359367725971,85.572009386637,0.05062018
0.25538844482345,0.028421767453651,85.39584476113,0.050725125000001
0.25580422705205,0.028484163170093,85.220379943588,0.050830080000001
0.25621924511773,0.028546554868974,85.045610704529,0.050935045000001
0.25663350192817,0.028608942544017,84.871532849031,0.05104002
0.25704700037342,0.028671326188989,84.698142216389,0.051145005
0.25745974332606,0.028733705797701,84.525434679762,0.05125
0.25787173364135,0.028796081364005,84.353406145823,0.051355005
0.25828297415737,0.028858452881799,84.182052554412,0.05146002
0.25869346769514,0.028920820345024,84.011369878204,0.051565045
0.2591032170588,0.02898318374766,83.841354122365,0.05167008
0.25951222503574,0.029045543083734,83.672001324232,0.051775125
0.2599204943967,0.02910789834731,83.503307552967,0.05188018
0.26032802789596,0.029170249532496,83.335268909259,0.051985245
0.26073482827144,0.02923259663344,83.167881524982,0.05209032
0.26114089824486,0.029294939644332,83.001141562895,0.052195405
0.26154624052184,0.029357278559401,82.835045216326,0.0523005
0.26195085779205,0.029419613372916,82.669588708859,0.052405605
0.26235475272936,0.029481944079187,82.50476829404,0.05251072
0.26275792799191,0.029544270672562,82.340580255066,0.052615845
0.26316038622232,0.029606593147428,82.177020904499,0.052720980000001
0.26356213004773,0.029668911498213,82.014086583966,0.052826125000001
0.26396316207999,0.02973122571938,81.851773663871,0.052931280000001
0.26436348491574,0.029793535805433,81.690078543113,0.053036445000001
0.26476310113656,0.029855841750911,81.528997648801,0.053141620000001
0.26516201330908,0.029918143550394,81.368527435969,0.053246805000001
0.2655602239851,0.029980441198497,81.208664387311,0.053352
0.2659577357017,0.030042734689872,81.049405012903,0.053457205
0.26635455098137,0.030105024019208,80.890745849929,0.05356242
0.26675067233212,0.030167309181229,80.732683462427,0.053667645
0.26714610224759,0.030229590170698,80.575214441016,0.05377288
0.26754084320719,0.030291866982411,80.41833540264,0.053878125
0.26793489767616,0.0303541396112,80.262042990308,0.05398338
0.26832826810575,0.030416408051934,80.106333872846,0.054088645
0.26872095693325,0.030478672299514,79.951204744642,0.05419392
0.26911296658218,0.030540932348878,79.796652325404,0.054299205
0.26950429946233,0.030603188194996,79.642673359905,0.0544045
0.26989495796991,0.030665439832876,79.489264617752,0.054509805000001
0.27028494448765,0.030727687257556,79.336422893141,0.054615120000001
0.27067426138488,0.030789930464108,79.184145004615,0.054720445000001
0.27106291101766,0.03085216944764,79.032427794846,0.054825780000001
0.27145089572888,0.03091440420329,78.881268130392,0.054931125000001
0.27183821784835,0.03097663472623,78.730662901467,0.055036480000001
0.27222487969289,0.031038861011666,78.580609021724,0.055141845
0.27261088356647,0.031101083054833,78.431103428033,0.055247220000001
0.27299623176027,0.031163300851001,78.282143080253,0.055352605
0.27338092655279,0.03122551439547,78.133724961008,0.055458000000001
0.27376497020996,0.031287723683572,77.985846075491,0.055563405
0.27414836498522,0.031349928710672,77.83850345124,0.055668820000001
0.27453111311962,0.031412129472163,77.69169413792,0.055774245
0.2749132168419,0.03147432596347,77.545415207131,0.05587968
0.27529467836862,0.031536518180051,77.399663752195,0.055985125
0.2756754999042,0.03159870611739,77.254436887943,0.05609058
0.27605568364107,0.031660889771004,77.109731750537,0.056196045
0.27643523175971,0.03172306913644,76.965545497238,0.05630152
0.27681414642878,0.031785244209274,76.821875306246,0.056407005
0.27719242980516,0.031847414985111,76.678718376477,0.056512500000001
0.27757008403409,0.031909581459585,76.536071927384,0.056618005000001
0.27794711124922,0.03197174362836,76.393933198771,0.056723520000001
0.27832351357272,0.032033901487129,76.252299450591,0.056829045000001
0.27869929311534,0.032096055031613,76.11116796277,0.056934580000001
0.27907445197654,0.03215820425756,75.970536035027,0.057040125000001
0.27944899224451,0.032220349160749,75.830400986677,0.057145680000001
0.27982291599617,0.032282489736985,75.690760156517,0.057251245000001
0.28019622529763,0.032344625982101,75.551610902491,0.057356820000001
0.28056892220389,0.032406757891958,75.412950601661,0.057462405000001
0.28094100875902,0.032468885462443,75.274776649997,0.057568
0.28131248699626,0.032531008689473,75.137086462187,0.057673605
0.28168335893813,0.032593127568988,74.999877471476,0.05777922
0.28205362659644,0.032655242096958,74.863147129509,0.057884845
0.28242329197243,0.032717352269377,74.726892906138,0.05799048
0.28279235705681,0.032779458082269,74.591112289288,0.058096125
0.28316082382986,0.03284155953168,74.455802784768,0.05820178
0.28352869426148,0.032903656613684,74.320961916127,0.058307445000001
0.2838959703113,0.03296574932438,74.186587224479,0.058413120000001
0.28426265392871,0.033027837659894,74.052676268375,0.058518805000001
0.28462874705297,0.033089921616377,73.919226623615,0.058624500000001
0.28499425161326,0.033152001190003,73.786235883105,0.058730205000001
0.28535916952879,0.033214076376974,73.653701656715,0.058835920000001
0.2857235027088,0.033276147173515,73.521621571113,0.058941645000001
0.28608725305272,0.033338213575877,73.389993269626,0.059047380000001
0.28645042245015,0.033400275580333,73.258814412094,0.059153125000001
0.286813012781,0.033462333183184,73.128082674706,0.059258880000001
0.28717502591553,0.033524386380752,72.997795749883,0.059364645000001
0.28753646371443,0.033586435169384,72.867951346116,0.059470420000001
0.28789732802884,0.033648479545452,72.738547187824,0.059576205
0.28825762070051,0.03371051950535,72.609581015234,0.059682000000001
0.28861734356177,0.033772555045496,72.481050584209,0.059787805
0.28897649843566,0.033834586162331,72.352953666152,0.059893620000001
0.28933508713596,0.03389661285232,72.22528804783,0.059999445000001
0.28969311146728,0.03395863511195,72.098051531279,0.060105280000001
0.29005057322511,0.034020652937732,71.971241933633,0.060211125000001
0.29040747419587,0.034082666326198,71.844857087023,0.060316980000001
0.290763816157,0.034144675273904,71.718894838433,0.060422845000001
0.29111960087703,0.034206679777427,71.593353049576,0.060528720000001
0.29147483011559,0.034268679833368,71.468229596758,0.060634605000001
0.29182950562352,0.034330675438348,71.343522370766,0.060740500000001
0.29218362914292,0.034392666589011,71.219229276743,0.060846405000001
0.29253720240719,0.034454653282022,71.095348234046,0.060952320000001
0.29289022714112,0.03451663551407,70.971877176141,0.061058245000001
0.29324270506093,0.034578613281861,70.848814050485,0.061164180000001
0.29359463787432,0.034640586582126,70.726156818392,0.061270125000001
0.29394602728055,0.034702555411615,70.603903454929,0.061376080000001
0.29429687497051,0.034764519767102,70.48205194878,0.061482045000001
0.29464718262671,0.034826479645377,70.360600302162,0.061588020000001
0.29499695192343,0.034888435043255,70.239546530674,0.061694005000001
0.29534618452669,0.03495038595757,70.118888663215,0.061800000000001
0.29569488209436,0.035012332385175,69.998624741845,0.061906005000001
0.29604304627621,0.035074274322946,69.878752821699,0.06201202
0.29639067871394,0.035136211767777,69.759270970853,0.062118045000001
0.29673778104125,0.035198144716583,69.640177270242,0.062224080000001
0.2970843548839,0.035260073166298,69.521469813518,0.062330125000001
0.29743040185974,0.035321997113876,69.403146706976,0.062436180000001
0.29777592357879,0.035383916556293,69.285206069436,0.062542245000001
0.29812092164328,0.03544583149054,69.167646032128,0.062648320000001
0.29846539764771,0.03550774191363,69.050464738606,0.062754405000001
0.29880935317886,0.035569647822596,68.933660344635,0.062860500000001
0.29915278981592,0.035631549214489,68.817231018092,0.062966605000001
0.29949570913047,0.035693446086378,68.701174938869,0.063072720000001
0.29983811268657,0.035755338435351,68.585490298766,0.063178845000001
0.30018000204077,0.035817226258517,68.470175301397,0.063284980000001
0.30052137874222,0.035879109553001,68.355228162101,0.063391125000001
0.30086224433266,0.035940988315947,68.240647107829,0.063497280000001
0.30120260034649,0.036002862544519,68.126430377062,0.063603445000001
0.30154244831085,0.036064732235897,68.012576219704,0.063709620000001
0.3018817897456,0.03612659738728,67.899082897012,0.063815805
0.30222062616344,0.036188457995885,67.78594868147,0.063922000000001
0.3025589590699,0.036250314058947,67.673171856722,0.064028205000001
0.30289678996342,0.036312165573718,67.560750717481,0.064134420000001
0.30323412033539,0.036374012537468,67.448683569415,0.064240645000001
0.30357095167017,0.036435854947485,67.336968729089,0.064346880000001
0.30390728544517,0.036497692801075,67.225604523861,0.064453125000001
0.3042431231309,0.036559526095558,67.114589291792,0.064559380000001
0.30457846619098,0.036621354828274,67.003921381565,0.064665645000001
0.30491331608218,0.03668317899658,66.893599152401,0.064771920000001
0.30524767425452,0.03674499859785,66.783620973967,0.064878205000001
0.30558154215126,0.036806813629472,66.673985226307,0.064984500000001
0.30591492120896,0.036868624088854,66.564690299734,0.065090805000001
0.30624781285753,0.03693042997342,66.45573459477,0.065197120000001
0.30658021852027,0.036992231280609,66.34711652206,0.065303445000001
0.30691213961391,0.037054028007878,66.238834502279,0.065409780000001
0.30724357754864,0.037115820152699,66.130886966072,0.065516125000001
0.30757453372816,0.037177607712561,66.023272353954,0.065622480000001
0.30790500954974,0.037239390684969,65.915989116244,0.065728845000001
0.30823500640424,0.037301169067444,65.809035712988,0.065835220000001
0.30856452567614,0.037362942857521,65.702410613873,0.065941605000001
0.30889356874361,0.037424712052755,65.596112298167,0.066048000000001
0.30922213697853,0.037486476650712,65.490139254624,0.066154405000001
0.30955023174654,0.037548236648976,65.384489981413,0.066260820000001
0.30987785440705,0.037609992045147,65.279162986063,0.066367245000001
0.31020500631334,0.037671742836839,65.174156785371,0.066473680000001
0.31053168881253,0.037733489021682,65.069469905326,0.066580125000001
0.31085790324566,0.03779523059732,64.965100881055,0.066686580000001
0.31118365094772,0.037856967561414,64.861048256737,0.066793045000001
0.31150893324768,0.037918699911638,64.757310585544,0.066899520000001
0.31183375146853,0.037980427645683,64.653886429555,0.067006005000001
0.31215810692732,0.038042150761253,64.550774359707,0.067112500000001
0.31248200093521,0.038103869256067,64.447972955699,0.067219005000001
0.31280543479748,0.03816558312786,64.345480805956,0.067325520000001
0.31312840981357,0.038227292374379,64.243296507546,0.067432045000001
0.31345092727715,0.038288996993388,64.1414186661,0.067538580000001
0.31377298847609,0.038350696982665,64.039845895768,0.067645125000001
0.31409459469258,0.03841239234,63.938576819149,0.067751680000001
0.3144157472031,0.038474083063199,63.837610067216,0.067858245000001
0.31473644727846,0.038535769150082,63.736944279261,0.067964820000001
0.31505669618388,0.038597450598482,63.636578102819,0.068071405000001
0.31537649517897,0.038659127406248,63.536510193625,0.068178000000001
0.3156958455178,0.03872079957124,63.436739215536,0.068284605000001
0.31601474844893,0.038782467091334,63.337263840478,0.068391220000001
0.31633320521541,0.038844129964419,63.23808274837,0.068497845
0.31665121705485,0.038905788188396,63.139194627078,0.068604480000001
0.31696878519947,0.038967441761182,63.040598172352,0.068711125
0.31728591087605,0.039029090680706,62.942292087767,0.06881778
0.31760259530606,0.039090734944911,62.844275084655,0.068924445000001
0.31791883970563,0.039152374551751,62.746545882056,0.06903112
0.31823464528561,0.039214009499197,62.649103206652,0.069137805
0.31855001325157,0.039275639785229,62.551945792719,0.0692445
0.3188649448039,0.039337265407844,62.455072382065,0.069351205
0.31917944113773,0.039398886365048,62.358481723973,0.06945792
0.3194935034431,0.039460502654863,62.262172575141,0.069564645
0.31980713290485,0.039522114275322,62.166143699637,0.06967138
0.32012033070275,0.039583721224471,62.070393868832,0.069778125
0.32043309801151,0.039645323500369,61.974921861359,0.069884880000001
0.32074543600076,0.039706921101087,61.879726463044,0.069991645
0.32105734583515,0.039768514024709,61.784806466864,0.070098420000001
0.32136882867434,0.03983010226933,61.690160672889,0.070205205
0.32167988567303,0.03989168583306,61.59578788823,0.070312
0.32199051798098,0.039953264714019,61.50168692699,0.070418805000001
0.3223007267431,0.04001483891034,61.407856610206,0.070525620000001
0.32261051309939,0.040076408420167,61.314295765805,0.070632445000001
0.32291987818502,0.040137973241657,61.221003228544,0.070739280000001
0.32322882313038,0.040199533372979,61.127977839972,0.070846125
0.32353734906104,0.040261088812314,61.035218448372,0.07095298
0.32384545709782,0.040322639557854,60.942723908711,0.071059845000001
0.32415314835685,0.040384185607804,60.850493082595,0.07116672
0.32446042394953,0.040445726960379,60.758524838221,0.071273605
0.32476728498258,0.040507263613807,60.666818050323,0.0713805
0.32507373255811,0.040568795566327,60.575371600134,0.071487405
0.32537976777358,0.040630322816188,60.484184375323,0.07159432
0.32568539172187,0.040691845361654,60.393255269968,0.071701245
0.3259906054913,0.040753363200996,60.3025831845,0.07180818
0.32629541016565,0.040814876332499,60.212167025648,0.071915125
0.32659980682419,0.04087638475446,60.122005706408,0.07202208
0.32690379654169,0.040937888465184,60.032098145993,0.072129045
0.32720738038848,0.040999387462989,59.942443269785,0.07223602
0.32751055943043,0.041060881746204,59.853040009293,0.072343005
0.32781333472903,0.041122371313169,59.763887302111,0.07245
0.32811570734136,0.041183856162234,59.67498409187,0.072557005
0.32841767832015,0.041245336291761,59.586329328198,0.07266402
0.32871924871379,0.041306811700121,59.497921966673,0.072771045
0.32902041956638,0.041368282385697,59.40976096879,0.07287808
0.32932119191771,0.041429748346883,59.321845301902,0.072985125
0.32962156680331,0.041491209582082,59.234173939199,0.07309218
0.32992154525449,0.041552666089709,59.146745859654,0.073199245
0.33022112829832,0.041614117868188,59.059560047982,0.07330632
0.33052031695771,0.041675564915956,58.972615494595,0.073413405
0.33081911225138,0.041737007231456,58.88591119558,0.0735205
0.33111751519393,0.041798444813146,58.799446152638,0.073627605
0.3314155267958,0.041859877659491,58.713219373061,0.07373472
0.33171314806338,0.041921305768967,58.627229869675,0.073841845
0.33201037999896,0.04198272914006,58.541476660816,0.07394898
0.33230722360077,0.042044147771267,58.455958770291,0.074056125
0.33260367986305,0.042105561661093,58.370675227327,0.07416328
0.33289974977598,0.042166970808055,58.285625066547,0.074270445
0.33319543432581,0.042228375210679,58.200807327921,0.07437762
0.33349073449478,0.0422897748675,58.116221056733,0.074484805
0.33378565126123,0.042351169777064,58.031865303552,0.074592
0.33408018559955,0.042412559937926,57.947739124178,0.074699205
0.33437433848026,0.04247394534865,57.863841579629,0.07480642
0.33466811086998,0.042535326007812,57.780171736076,0.074913645
0.3349615037315,0.042596701913994,57.69672866483,0.07502088
0.33525451802376,0.042658073065791,57.613511442301,0.075128125
0.33554715470189,0.042719439461804,57.530519149956,0.07523538
0.33583941471723,0.042780801100647,57.44775087429,0.075342645
0.33613129901736,0.042842157980941,57.365205706793,0.07544992
0.33642280854611,0.042903510101315,57.282882743908,0.075557205
0.33671394424356,0.042964857460411,57.200781087007,0.0756645
0.3370047070461,0.043026200056877,57.118899842344,0.075771805
0.33729509788642,0.043087537889371,57.037238121038,0.07587912
0.33758511769356,0.043148870956561,56.955795039025,0.075986445
0.3378747673929,0.043210199257123,56.874569717033,0.07609378
0.33816404790618,0.043271522789742,56.793561280546,0.076201125
0.33845296015154,0.043332841553112,56.712768859777,0.07630848
0.33874150504354,0.043394155545935,56.632191589625,0.076415845
0.33902968349315,0.043455464766925,56.551828609656,0.07652322
0.33931749640781,0.043516769214801,56.471679064062,0.076630605
0.33960494469141,0.043578068888292,56.391742101634,0.076738
0.33989202924433,0.043639363786136,56.312016875732,0.076845405
0.34017875096346,0.043700653907081,56.232502544246,0.07695282
0.34046511074222,0.04376193924988,56.153198269572,0.077060245
0.34075110947055,0.043823219813298,56.07410321859,0.07716768
0.34103674803498,0.043884495596106,55.995216562614,0.077275125
0.3413220273186,0.043945766597085,55.916537477376,0.07738258
0.3416069482011,0.044007032815025,55.838065142996,0.077490045
0.34189151155879,0.044068294248721,55.75979874395,0.07759752
0.34217571826461,0.04412955089698,55.681737469035,0.077705005
0.34245956918816,0.044190802758615,55.603880511349,0.0778125
0.3427430651957,0.044252049832449,55.52622706826,0.077920005
0.34302620715017,0.044313292117311,55.44877634138,0.07802752
0.34330899591124,0.044374529612039,55.371527536527,0.078135045
0.34359143233527,0.04443576231548,55.294479863704,0.07824258
0.34387351727538,0.044496990226489,55.217632537075,0.078350125
0.34415525158143,0.044558213343927,55.140984774933,0.07845768
0.34443663610007,0.044619431666665,55.064535799666,0.078565245
0.34471767167473,0.04468064519358,54.988284837743,0.07867282
0.34499835914565,0.044741853923559,54.912231119681,0.078780405
0.34527869934988,0.044803057855496,54.836373880014,0.078888
0.34555869312133,0.044864256988292,54.760712357271,0.078995605
0.34583834129075,0.044925451320857,54.685245793953,0.07910322
0.34611764468577,0.044986640852107,54.609973436503,0.079210845
0.34639660413091,0.045047825580967,54.534894535274,0.07931848
0.34667522044758,0.045109005506369,54.460008344521,0.079426125
0.34695349445414,0.045170180627254,54.385314122354,0.07953378
0.34723142696585,0.045231350942568,54.310811130727,0.079641445
0.34750901879495,0.045292516451266,54.236498635411,0.07974912
0.34778627075064,0.045353677152311,54.162375905964,0.079856805
0.3480631836391,0.045414833044671,54.088442215712,0.0799645
0.34833975826351,0.045475984127326,54.014696841722,0.080072205
0.34861599542407,0.045537130399257,53.941139064777,0.08017992
0.348891895918,0.045598271859458,53.867768169348,0.080287645
0.34916746053957,0.045659408506927,53.794583443589,0.08039538
0.34944269008012,0.04572054034067,53.721584179287,0.080503125
0.34971758532805,0.045781667359701,53.648769671854,0.08061088
0.34999214706886,0.04584278956304,53.576139220297,0.080718645
0.35026637608514,0.045903906949714,53.503692127205,0.08082642
0.35054027315661,0.045965019518758,53.431427698719,0.080934205
0.35081383906013,0.046026127269214,53.359345244501,0.081042
0.3510870745697,0.04608723020013,53.287444077733,0.081149805
0.35135998045649,0.046148328310562,53.215723515069,0.08125762
0.35163255748883,0.046209421599572,53.14418287663,0.081365445
0.35190480643226,0.04627051006623,53.072821485979,0.08147328
0.35217672804953,0.046331593709612,53.001638670097,0.081581125
0.35244832310057,0.046392672528801,52.930633759361,0.08168898
0.3527195923426,0.046453746522887,52.859806087518,0.081796845
0.35299053653005,0.046514815690966,52.789154991677,0.08190472
0.35326115641462,0.046575880032141,52.718679812271,0.082012605
0.35353145274528,0.046636939545522,52.648379893052,0.0821205
0.3538014262683,0.046697994230227,52.578254581054,0.082228405
0.35407107772725,0.046759044085378,52.508303226588,0.08233632
0.35434040786301,0.046820089110104,52.43852518321,0.082444245
0.35460941741379,0.046881129303542,52.368919807701,0.08255218
0.35487810711513,0.046942164664835,52.299486460059,0.082660125
0.35514647769996,0.047003195193132,52.23022450346,0.08276808
0.35541452989854,0.047064220887589,52.161133304256,0.082876045
0.35568226443853,0.047125241747367,52.092212231941,0.08298402
0.35594968204498,0.047186257771635,52.023460659141,0.083092005
0.35621678344036,0.047247268959568,51.95487796159,0.0832
0.35648356934454,0.047308275310348,51.886463518111,0.083308005
0.35675004047483,0.047369276823159,51.818216710596,0.08341602
0.35701619754598,0.047430273497198,51.750136923992,0.083524045
0.35728204127023,0.047491265331664,51.682223546274,0.08363208
0.35754757235723,0.047552252325761,51.614475968428,0.083740125
0.35781279151417,0.047613234478704,51.546893584444,0.08384818
0.35807769944571,0.047674211789709,51.479475791279,0.083956245
0.35834229685401,0.047735184258001,51.412221988851,0.08406432
0.35860658443876,0.04779615188281,51.345131580019,0.084172405
0.35887056289718,0.047857114663373,51.27820397056,0.0842805
0.35913423292403,0.047918072598932,51.211438569156,0.084388605
0.35939759521163,0.047979025688736,51.144834787376,0.08449672
0.35966065044987,0.048039973932038,51.078392039655,0.084604845
0.3599233993262,0.048100917328099,51.012109743274,0.08471298
0.36018584252568,0.048161855876185,50.945987318356,0.084821125
0.36044798073097,0.048222789575567,50.880024187827,0.08492928
0.36070981462233,0.048283718425524,50.814219777425,0.085037445
0.36097134487766,0.048344642425339,50.748573515657,0.08514562
0.36123257217249,0.0484055615743,50.683084833802,0.085253805
0.36149349718,0.048466475871704,50.617753165883,0.085362
0.36175412057103,0.04852738531685,50.552577948652,0.085470205
0.36201444301409,0.048588289909045,50.487558621574,0.08557842
0.36227446517536,0.048649189647601,50.422694626819,0.085686645
0.36253418771872,0.048710084531836,50.357985409233,0.08579488
0.36279361130577,0.048770974561072,50.293430416326,0.085903124999999
0.3630527365958,0.048831859734638,50.229029098253,0.086011379999999
0.36331156424585,0.048892740051869,50.164780907812,0.086119644999999
0.36357009491067,0.048953615512104,50.10068530041,0.086227919999999
0.36382832924276,0.049014486114689,50.036741734059,0.086336204999999
0.3640862678924,0.049075351858974,49.972949669355,0.086444499999999
0.36434391150763,0.049136212744315,49.909308569466,0.086552804999999
0.36460126073425,0.049197068770074,49.845817900109,0.086661119999999
0.36485831621586,0.049257919935618,49.782477129543,0.086769444999999
0.36511507859388,0.049318766240318,49.719285728556,0.086877779999999
0.3653715485075,0.049379607683553,49.65624317044,0.086986124999999
0.36562772659378,0.049440444264705,49.593348930982,0.087094479999999
0.36588361348755,0.049501275983162,49.530602488448,0.087202844999999
0.36613920982154,0.049562102838318,49.468003323567,0.087311219999999
0.3663945162263,0.049622924829571,49.405550919523,0.087419604999999
0.36664953333023,0.049683741956325,49.34324476193,0.087527999999999
0.36690426175964,0.049744554217988,49.281084338823,0.087636404999999
0.36715870213867,0.049805361613975,49.219069140646,0.087744819999999
0.3674128550894,0.049866164143706,49.157198660235,0.087853244999999
0.36766672123177,0.049926961806603,49.0954723928,0.087961679999999
0.36792030118366,0.049987754602096,49.033889835923,0.088070124999999
0.36817359556086,0.05004854252962,48.972450489527,0.08817858
0.36842660497708,0.050109325588614,48.911153855876,0.088287044999999
0.36867933004398,0.050170103778523,48.849999439556,0.088395519999999
0.36893177137116,0.050230877098795,48.788986747463,0.088504004999999
0.36918392956619,0.050291645548885,48.728115288785,0.088612499999999
0.3694358052346,0.050352409128252,48.667384574996,0.088721004999999
0.3696873989799,0.05041316783636,48.606794119834,0.088829519999999
0.36993871140357,0.050473921672678,48.546343439296,0.088938044999999
0.37018974310511,0.05053467063668,48.486032051623,0.089046579999999
0.37044049468202,0.050595414727844,48.425859477276,0.089155124999999
0.37069096672979,0.050656153945654,48.365825238941,0.089263679999999
0.37094115984197,0.050716888289597,48.305928861503,0.089372244999999
0.37119107461011,0.050777617759168,48.24616987204,0.089480819999999
0.37144071162382,0.050838342353863,48.186547799805,0.089589404999999
0.37169007147074,0.050899062073185,48.127062176217,0.089697999999999
0.3719391547366,0.050959776916641,48.067712534845,0.089806604999999
0.37218796200517,0.051020486883743,48.008498411405,0.089915219999999
0.3724364938583,0.051081191974007,47.949419343733,0.090023844999999
0.37268475087594,0.051141892186953,47.890474871784,0.090132479999999
0.37293273363612,0.051202587522109,47.831664537618,0.090241124999999
0.37318044271498,0.051263277979003,47.772987885381,0.090349779999999
0.37342787868676,0.051323963557171,47.714444461301,0.090458444999999
0.37367504212383,0.051384644256151,47.656033813679,0.090567119999999
0.37392193359668,0.051445320075488,47.597755492858,0.090675804999999
0.37416855367395,0.05150599101473,47.539609051236,0.090784499999999
0.37441490292242,0.05156665707343,47.48159404324,0.090893204999999
0.374660981907,0.051627318251144,47.423710025313,0.091001919999999
0.37490679119079,0.051687974547434,47.365956555914,0.091110644999999
0.37515233133504,0.051748625961867,47.308333195492,0.091219379999999
0.3753976028992,0.051809272494013,47.250839506486,0.091328124999999
0.37564260644089,0.051869914143446,47.19347505331,0.091436879999999
0.37588734251593,0.051930550909746,47.136239402338,0.091545644999999
0.37613181167832,0.051991182792496,47.079132121902,0.091654419999999
0.37637601448031,0.052051809791284,47.022152782268,0.091763204999999
0.37661995147233,0.052112431905701,46.965300955639,0.091871999999999
0.37686362320306,0.052173049135346,46.908576216131,0.091980804999999
0.37710703021941,0.052233661479816,46.851978139776,0.092089619999999
0.37735017306653,0.052294268938719,46.795506304496,0.092198444999999
0.3775930522878,0.052354871511661,46.739160290105,0.092307279999999
0.37783566842489,0.052415469198258,46.682939678293,0.092416124999999
0.37807802201772,0.052476061998125,46.626844052612,0.092524979999999
0.37832011360447,0.052536649910885,46.570872998474,0.092633844999999
0.37856194372161,0.052597232936163,46.515026103133,0.092742719999999
0.37880351290391,0.052657811073588,46.459302955682,0.092851604999999
0.37904482168442,0.052718384322796,46.403703147032,0.092960499999999
0.37928587059449,0.052778952683422,46.348226269912,0.093069404999999
0.3795266601638,0.05283951615511,46.292871918857,0.093178319999999
0.37976719092032,0.052900074737506,46.23763969019,0.093287244999999
0.38000746339036,0.052960628430259,46.182529182024,0.093396179999999
0.38024747809857,0.053021177233023,46.127539994243,0.093505124999999
0.38048723556793,0.053081721145456,46.072671728498,0.093614079999999
0.38072673631976,0.05314226016722,46.017923988188,0.093723044999999
0.38096598087374,0.053202794297982,45.963296378467,0.093832019999999
0.38120496974791,0.05326332353741,45.908788506214,0.093941004999999
0.38144370345869,0.053323847885179,45.854399980039,0.094049999999999
0.38168218252085,0.053384367340966,45.800130410269,0.094159004999999
0.38192040744756,0.053444881904452,45.745979408933,0.094268019999999
0.38215837875039,0.053505391575323,45.69194658976,0.094377044999999
0.38239609693928,0.053565896353268,45.638031568168,0.094486079999999
0.38263356252258,0.05362639623798,45.58423396125,0.094595124999999
0.38287077600707,0.053686891229155,45.53055338777,0.094704179999999
0.38310773789792,0.053747381326495,45.476989468152,0.094813244999999
0.38334444869873,0.053807866529702,45.423541824474,0.094922319999999
0.38358090891155,0.053868346838487,45.370210080449,0.095031404999999
0.38381711903684,0.053928822252559,45.316993861432,0.095140499999999
0.38405307957352,0.053989292771635,45.263892794393,0.095249604999999
0.38428879101896,0.054049758395434,45.210906507923,0.095358719999999
0.38452425386899,0.054110219123679,45.15803463222,0.095467844999999
0.38475946861788,0.054170674956096,45.105276799076,0.095576979999999
0.38499443575839,0.054231125892415,45.052632641872,0.095686124999999
0.38522915578176,0.054291571932371,45.000101795575,0.095795279999999
0.38546362917771,0.0543520130757,44.947683896717,0.095904444999999
0.38569785643445,0.054412449322144,44.895378583398,0.096013619999999
0.38593183803866,0.054472880671448,44.84318549527,0.096122804999999
0.38616557447557,0.054533307123358,44.791104273532,0.096231999999999
0.38639906622888,0.054593728677628,44.739134560922,0.096341204999999
0.38663231378083,0.054654145334012,44.687276001709,0.096450419999999
0.38686531761215,0.05471455709227,44.635528241681,0.096559644999999
0.38709807820214,0.054774963952163,44.583890928141,0.096668879999999
0.38733059602859,0.054835365913457,44.532363709896,0.096778124999999
0.38756287156787,0.054895762975921,44.48094623725,0.096887379999999
0.38779490529487,0.054956155139329,44.429638161998,0.096996644999999
0.38802669768303,0.055016542403455,44.378439137416,0.097105919999999
0.38825824920437,0.055076924768081,44.327348818249,0.097215204999999
0.38848956032946,0.055137302232988,44.276366860714,0.097324499999999
0.38872063152743,0.055197674797963,44.225492922481,0.097433804999999
0.38895146326601,0.055258042462796,44.174726662673,0.097543119999999
0.38918205601149,0.055318405227279,44.124067741849,0.097652444999999
0.38941241022878,0.05537876309121,44.073515822009,0.097761779999999
0.38964252638133,0.055439116054388,44.023070566576,0.097871124999999
0.38987240493125,0.055499464116617,43.972731640395,0.097980479999999
0.39010204633921,0.055559807277702,43.922498709718,0.098089844999999
0.39033145106452,0.055620145537453,43.872371442207,0.098199219999999
0.39056061956509,0.055680478895683,43.822349506917,0.098308604999999
0.39078955229746,0.055740807352209,43.772432574292,0.098417999999999
0.3910182497168,0.05580113090685,43.72262031616,0.098527404999999
0.39124671227691,0.055861449559428,43.672912405723,0.098636819999999
0.39147494043023,0.05592176330977,43.62330851755,0.098746244999999
0.39170293462785,0.055982072157705,43.573808327571,0.098855679999999
0.39193069531951,0.056042376103064,43.524411513068,0.098965124999999
0.3921582229536,0.056102675145685,43.475117752671,0.099074579999999
0.39238551797717,0.056162969285404,43.425926726347,0.099184044999999
0.39261258083597,0.056223258522065,43.376838115397,0.099293519999999
0.39283941197437,0.056283542855511,43.327851602441,0.099403004999999
0.39306601183547,0.056343822285591,43.278966871428,0.099512499999999
0.39329238086101,0.056404096812156,43.23018360761,0.099622004999999
0.39351851949145,0.056464366435061,43.181501497542,0.099731519999999
0.39374442816593,0.056524631154162,43.132920229083,0.099841044999999
0.3939701073223,0.05658489096932,43.084439491377,0.099950579999999
0.3941955573971,0.0566451458804,43.036058974857,0.100060125
0.3944207788256,0.056705395887266,42.98777837123,0.10016968
0.39464577204177,0.056765640989788,42.939597373475,0.100279245
0.39487053747831,0.05682588118784,42.891515675833,0.10038882
0.39509507556664,0.056886116481296,42.843532973807,0.100498405
0.39531938673692,0.056946346870036,42.795648964148,0.100608
0.39554347141803,0.05700657235394,42.74786334485,0.100717605
0.3957673300376,0.057066792932894,42.700175815151,0.10082722
0.39599096302203,0.057127008606784,42.652586075514,0.100936845
0.39621437079643,0.0571872193755,42.605093827632,0.10104648
0.39643755378469,0.057247425238937,42.557698774417,0.101156125
0.39666051240947,0.057307626196991,42.510400619991,0.10126578
0.39688324709217,0.057367822249559,42.463199069688,0.101375445
0.39710575825299,0.057428013396545,42.416093830035,0.10148512
0.39732804631088,0.057488199637853,42.36908460876,0.101594805
0.3975501116836,0.057548380973391,42.322171114778,0.1017045
0.39777195478768,0.057608557403069,42.27535305818,0.101814205
0.39799357603843,0.057668728926801,42.228630150243,0.10192392
0.39821497584997,0.057728895544503,42.182002103407,0.102033645
0.39843615463523,0.057789057256094,42.135468631279,0.10214338
0.39865711280593,0.057849214061496,42.089029448623,0.102253125
0.39887785077261,0.057909365960633,42.042684271355,0.10236288
0.39909836894461,0.057969512953433,41.996432816542,0.102472645
0.39931866773011,0.058029655039825,41.950274802384,0.10258242
0.39953874753609,0.058089792219744,41.904209948223,0.102692205
0.39975860876839,0.058149924493124,41.858237974525,0.102802
0.39997825183166,0.058210051859903,41.812358602886,0.102911805
0.40019767712939,0.058270174320023,41.766571556011,0.10302162
0.40041688506392,0.058330291873428,41.72087655772,0.103131445
0.40063587603645,0.058390404520064,41.675273332947,0.10324128
0.400854650447,0.05845051225988,41.629761607717,0.103351125
0.40107320869447,0.058510615092828,41.584341109155,0.10346098
0.40129155117662,0.058570713018862,41.539011565475,0.103570845
0.40150967829006,0.05863080603794,41.493772705976,0.10368072
0.40172759043029,0.058690894150022,41.448624261037,0.103790605
0.40194528799168,0.058750977355069,41.403565962107,0.1039005
0.40216277136746,0.058811055653047,41.358597541708,0.104010405
0.40238004094976,0.058871129043923,41.31371873342,0.10412032
0.4025970971296,0.058931197527668,41.268929271886,0.104230245
0.40281394029689,0.058991261104254,41.224228892793,0.10434018
0.40303057084042,0.059051319773657,41.179617332884,0.104450125
0.4032469891479,0.059111373535854,41.135094329941,0.10456008
0.40346319560594,0.059171422390826,41.090659622778,0.104670045
0.40367919060005,0.059231466338557,41.046312951246,0.10478002
0.40389497451466,0.059291505379031,41.00205405622,0.104890005
0.40411054773313,0.059351539512236,40.957882679597,0.105
