d,ep,stress_yy,total_strain_yy
0,0,0,0
0,0,27.515506675563,0.00040007999999991
0,0,55.022035086594,0.00080031999999997
0,0,68.771936368303,0.0010004999999998
