d,ep,stress_yy,total_strain_yy
0,0,0,0
0,0,6.8797190688834,0.00010000499999996
0,0,13.758876406685,0.00020001999999997
0,0,20.637472210044,0.00030004499999992
0,0,27.515506675558,0.00040007999999991
0,0,34.392979999647,0.00050012499999996
0,0,41.269892378663,0.00060017999999995
0,0,48.146244008907,0.00070024499999988
0,0,55.022035086568,0.00080031999999997
0,0,61.897265807699,0.00090040499999988
0,0,68.771936368286,0.0010004999999998
